&projwfc
   outdir='.',
   prefix='Fe',
   ngauss=0, degauss=0.036748
   DeltaE=0.01
   kresolveddos=.true.
   !filpdos='fe.k'
   filproj='feproj.k'
/
