#************************************************************************************
#*                  Generated by cif2cell 1.2.10 2021-01-07 11:38                   *
#*  T. Bjorkman, Comp. Phys. Commun. 182, 1183-1186 (2011). Please cite generously. *
#*                                                                                  *
#*                                     Fe   ()                                      *
#*             Failed to get author information, No journal information             *
#************************************************************************************
&CONTROL
    calculation = 'bands',
    prefix =     'Fe',
    restart_mode='from_scratch',
    pseudo_dir='.',
    outdir = '.', 
    wf_collect = .false.
 /
&SYSTEM
    ibrav = 0
    A =    2.45956
    nat = 1
    ntyp = 1
    nbnd = 24
    ecutrho = 600.0,
    ecutwfc = 75.0, 
    nspin = 2,
    starting_magnetization(1)= 0.7
    occupations='smearing',
    smearing='marzari-vanderbilt',
    degauss=0.05,
/
&electrons
 conv_thr = 1.0d-10
 mixing_beta = 0.7
 /
CELL_PARAMETERS {alat}
  1.000000000000000   0.000000000000000   0.000000000000000 
 -0.333333333333333   0.942809041608189   0.000000000000000 
 -0.333333333333333  -0.471404520647340   0.816496581040854 
ATOMIC_SPECIES
  Fe   55.84500  Fe.pbe-spn-kjpaw_psl.1.0.0.UPF
ATOMIC_POSITIONS {crystal}
Fe   0.000000000000000   0.000000000000000   0.000000000000000 

K_POINTS crystal_b
4
0.0000000000	0.0000000000	0.0000000000 30 !G
0.5000000000	-0.5000000000	0.5000000000 30 !H
0.0000000000	0.0000000000	0.5000000000 30 !N
0.0000000000	0.0000000000	0.0000000000 30 !G

