RHL1 (rhombohedral alpha < 90) G-L-B1 B-Z-G-X Q-F-P1-Z L-P
16   ! 16 grids 
Line-mode
reciprocal
   0.000   0.000   0.000    ! \Gamma
   0.500   0.000   0.000    ! L
 
   0.500   0.000   0.000    ! L
  0.500  0.444077  -0.444077  ! B_1
 
0.555923  0.500  0.444077  ! B
   0.500   0.500   0.500    ! Z
 
   0.500   0.500   0.500    ! Z
   0.000   0.000   0.000    ! \Gamma
 
   0.000   0.000   0.000    ! \Gamma
0.472039  0.000  -0.472039  ! X
 
0.527961  0.472039  0.000   ! Q
   0.500   0.500   0.000    ! F
 
   0.500   0.500   0.000    ! F
0.527961  0.527961  0.444077  ! P_1
 
0.527961  0.527961  0.444077  ! P_1
   0.500   0.500   0.500    ! Z
 
   0.500   0.000   0.000    ! L
0.555923  0.472039  0.472039  ! P