Si
5.38936
0.5 0.5 0.0
0.0 0.5 0.5
0.5 0.0 0.5
2
Cartesian 
0.0000000000000 0.00000000000 0.0000000000000
0.2500000000000 0.25000000000 0.2500000000000 