poscar.py
1.0
17.835 0.0 0.0
0.0 17.835 0.0
0.0 0.0 17.835
C N H
36 1 42
Direct
0.0 0.1 0.1
0.1 0.0 0.1
0.1 0.1 0.0
0.05 0.15 0.15
0.15 0.05 0.15
0.15 0.15 0.05
0.2 0.0 0.0
0.2 0.1 0.1
0.9 0.0 0.1
0.9 0.1 0.0
0.85 0.05 0.05
0.95 0.05 0.15
0.95 0.15 0.05
0.0 0.2 0.0
0.1 0.2 0.1
0.0 0.9 0.1
0.1 0.9 0.0
0.05 0.85 0.05
0.05 0.95 0.15
0.15 0.95 0.05
0.9 0.9 0.0
0.95 0.95 0.05
0.0 0.0 0.2
0.1 0.1 0.2
0.0 0.1 0.9
0.1 0.0 0.9
0.05 0.05 0.85
0.05 0.15 0.95
0.15 0.05 0.95
0.9 0.0 0.9
0.95 0.05 0.95
0.0 0.9 0.9
0.05 0.95 0.95
0.85 0.95 0.95
0.95 0.85 0.95
0.95 0.95 0.85
0.0 0.0 0.0
0.015038503463706426 0.1849614965362936 0.1849614965362936
0.1849614965362936 0.015038503463706426 0.1849614965362936
0.1849614965362936 0.1849614965362936 0.015038503463706426
0.23496149653629358 0.034961496536293574 0.034961496536293574
0.23496149653629353 -0.034961496536293594 -0.034961496536293594
0.23496149653629358 0.06503850346370643 0.06503850346370643
0.23496149653629358 0.13496149653629358 0.13496149653629358
-0.03496149653629362 0.13496149653629355 0.8650385034637065
0.13496149653629355 -0.03496149653629362 0.8650385034637065
0.13496149653629355 0.8650385034637065 -0.03496149653629362
0.8650385034637065 0.13496149653629355 -0.03496149653629362
0.08496149653629359 0.9150385034637064 0.1849614965362936
0.9150385034637064 0.08496149653629359 0.1849614965362936
0.9150385034637064 0.1849614965362936 0.08496149653629359
0.1849614965362936 0.9150385034637064 0.08496149653629359
0.08496149653629359 0.1849614965362936 0.9150385034637064
0.1849614965362936 0.08496149653629359 0.9150385034637064
0.8650385034637065 -0.03496149653629362 0.13496149653629355
-0.03496149653629362 0.8650385034637065 0.13496149653629355
0.06503850346370643 0.23496149653629358 0.06503850346370643
0.13496149653629358 0.23496149653629358 0.13496149653629358
0.8150385034637064 0.015038503463706426 0.015038503463706426
0.8150385034637064 0.08496149653629358 0.08496149653629358
0.034961496536293574 0.23496149653629358 0.034961496536293574
-0.034961496536293594 0.23496149653629353 -0.034961496536293594
0.08496149653629358 0.8150385034637064 0.08496149653629358
0.015038503463706426 0.8150385034637064 0.015038503463706426
0.034961496536293574 0.8650385034637065 0.8650385034637065
0.8650385034637065 0.034961496536293574 0.8650385034637065
0.8650385034637065 0.8650385034637065 0.034961496536293574
0.08496149653629358 0.08496149653629358 0.8150385034637064
0.015038503463706426 0.015038503463706426 0.8150385034637064
0.034961496536293574 0.034961496536293574 0.23496149653629358
-0.034961496536293594 -0.034961496536293594 0.23496149653629353
0.06503850346370643 0.06503850346370643 0.23496149653629358
0.13496149653629358 0.13496149653629358 0.23496149653629358
0.8150385034637064 0.9849614965362935 0.9849614965362935
0.8150385034637063 0.9150385034637064 0.9150385034637064
0.9150385034637064 0.8150385034637063 0.9150385034637064
0.9849614965362935 0.8150385034637064 0.9849614965362935
0.9150385034637064 0.9150385034637064 0.8150385034637063
0.9849614965362935 0.9849614965362935 0.8150385034637064
