poscar.py
1.0
8.753472 -15.161458246631552 0.0
8.753472 15.161458246631552 0.0
0.0 0.0 16.0
N B C H
13 9 6 19
Direct
0.09523809524285715 0.0476190476142857 0.0
0.9523809523857143 0.0476190476142857 0.0
0.09523809524285712 0.19047619047142852 0.0
0.3809523809571429 0.3333333333285714 0.0
0.5238095238142858 0.3333333333285714 0.0
0.3809523809571429 0.4761904761857143 0.0
0.6666666666714285 0.47619047618571425 0.0
0.38095238095714284 0.6190476190428571 0.0
0.8095238095285713 0.6190476190428571 0.0
0.5238095238142857 0.7619047618999999 0.0
0.6666666666714286 0.7619047619 0.0
0.8095238095285713 0.7619047618999999 0.0
0.0476190476142857 0.09523809524285715 0.0
0.3333333333285714 0.3809523809571429 0.0
0.4761904761857143 0.3809523809571429 0.0
0.6190476190428571 0.38095238095714284 0.0
0.3333333333285714 0.5238095238142858 0.0
0.7619047618999999 0.5238095238142857 0.0
0.47619047618571425 0.6666666666714285 0.0
0.7619047619 0.6666666666714286 0.0
0.6190476190428571 0.8095238095285713 0.0
0.7619047618999999 0.8095238095285713 0.0
0.4761904761857142 0.5238095238142856 0.0
0.6190476190428571 0.5238095238142857 0.0
0.5238095238142856 0.4761904761857142 0.0
0.6666666666714285 0.6190476190428571 0.0
0.5238095238142857 0.6190476190428571 0.0
0.6190476190428571 0.6666666666714285 0.0
0.5595238095280002 0.5833333333280002 0.01875
0.05962146843969511 -0.023614205970668444 0.0
0.16647134882781134 0.08323567441744784 0.0
0.9167643255825524 -0.02361420597066849 0.0
0.9167643255932372 0.08323567440676283 0.0
0.05962146845038005 0.22609281726390565 0.0
0.16647134882781128 0.22609281727459063 0.0
0.34533575415398077 0.26210007974361726 0.0
0.48819289701112367 0.26210007974361726 0.0
0.3453357541646658 0.6546642458353342 0.0
0.8807570631135255 0.654664245846019 0.0
0.48819289702180857 0.797521388692477 0.0
0.8807570631135254 0.7975213887031619 0.0
0.26210007974361726 0.34533575415398077 0.0
0.6546642458353342 0.3453357541646658 0.0
0.26210007974361726 0.48819289701112367 0.0
0.797521388692477 0.48819289702180857 0.0
0.654664245846019 0.8807570631135255 0.0
0.7975213887031619 0.8807570631135254 0.0
