poscar.py
1.0
39.26647182049349 0.0 0.0
0.0 30.0 0.0
0.0 0.0 25.56
C H
68 48
Direct
0.09395467 0.5 0.02777778
0.09395467 0.5 0.19444444
0.09395467 0.5 0.36111111
0.90604533 0.5 0.02777778
0.90604533 0.5 0.19444444
0.90604533 0.5 0.36111111
0.12527289 0.5 0.05555556
0.12527289 0.5 0.22222222
0.12527289 0.5 0.38888889
0.06263644 0.5 0.05555556
0.06263644 0.5 0.22222222
0.06263644 0.5 0.38888889
0.9373635600000001 0.5 0.05555556
0.9373635600000001 0.5 0.22222222
0.9373635600000001 0.5 0.38888889
0.87472711 0.5 0.05555556
0.87472711 0.5 0.22222222
0.87472711 0.5 0.38888889
0.12527289 0.5 0.11111111
0.12527289 0.5 0.27777778
0.12527289 0.5 0.44444444
0.06263644 0.5 0.11111111
0.06263644 0.5 0.27777778
0.06263644 0.5 0.44444444
0.9373635600000001 0.5 0.11111111
0.9373635600000001 0.5 0.27777778
0.9373635600000001 0.5 0.44444444
0.87472711 0.5 0.11111111
0.87472711 0.5 0.27777778
0.87472711 0.5 0.44444444
0.09395467 0.5 0.13888889
0.09395467 0.5 0.30555556
0.09395467 0.5 0.4722222200000001
0.90604533 0.5 0.13888889
0.90604533 0.5 0.30555556
0.90604533 0.5 0.4722222200000001
0.06263644 0.5 0.61111111
0.06263644 0.5 0.77777778
0.06263644 0.5 0.9444444400000002
0.9373635600000001 0.5 0.61111111
0.9373635600000001 0.5 0.77777778
0.9373635600000001 0.5 0.9444444400000002
0.09395467 0.5 0.63888889
0.09395467 0.5 0.80555556
0.09395467 0.5 0.97222222
0.03131822 0.5 0.63888889
0.03131822 0.5 0.80555556
0.9686817800000002 0.5 0.63888889
0.9686817800000002 0.5 0.80555556
0.90604533 0.5 0.63888889
0.90604533 0.5 0.80555556
0.90604533 0.5 0.97222222
0.09395467 0.5 0.52777778
0.09395467 0.5 0.69444444
0.09395467 0.5 0.8611111100000001
0.03131822 0.5 0.69444444
0.03131822 0.5 0.8611111100000001
0.9686817800000002 0.5 0.69444444
0.9686817800000002 0.5 0.8611111100000001
0.90604533 0.5 0.52777778
0.90604533 0.5 0.69444444
0.90604533 0.5 0.8611111100000001
0.06263644 0.5 0.55555556
0.06263644 0.5 0.72222222
0.06263644 0.5 0.8888888900000002
0.9373635600000001 0.5 0.55555556
0.9373635600000001 0.5 0.72222222
0.9373635600000001 0.5 0.8888888900000002
0.85068707 0.5 0.03423318
0.85068707 0.5 0.20089984
0.85068707 0.5 0.36756651
0.14931293 0.5 0.03423318
0.14931293 0.5 0.20089984
0.14931293 0.5 0.36756651
0.85068707 0.5 0.13243349
0.85068707 0.5 0.29910016
0.85068707 0.5 0.46576682
0.14931293 0.5 0.13243349
0.14931293 0.5 0.29910016
0.14931293 0.5 0.46576682
0.88200529 0.5 0.61756651
0.88200529 0.5 0.78423318
0.88200529 0.5 0.95089984
0.11799471 0.5 0.61756651
0.11799471 0.5 0.78423318
0.11799471 0.5 0.95089984
0.88200529 0.5 0.54910016
0.88200529 0.5 0.71576682
0.88200529 0.5 0.88243349
0.11799471 0.5 0.54910016
0.11799471 0.5 0.71576682
0.11799471 0.5 0.88243349
0.038816948187889146 0.5 0.034428797263528495
0.038816948187889146 0.5 0.20109545726352848
0.03881694818788914 0.5 0.3677621272635285
0.961183051812111 0.5 0.03442879726352853
0.961183051812111 0.5 0.2010954572635285
0.961183051812111 0.5 0.3677621272635285
0.038816948187889146 0.5 0.1322378727364715
0.03881694818788915 0.5 0.2989045427364715
0.038816948187889166 0.5 0.4655712027364715
0.961183051812111 0.5 0.13223787273647147
0.961183051812111 0.5 0.2989045427364715
0.9611830518121108 0.5 0.4655712027364715
0.03881694818788914 0.5 0.9655712027364717
0.961183051812111 0.5 0.9655712027364717
0.00749872818788917 0.5 0.6177621272635285
0.00749872818788917 0.5 0.7844287972635284
0.9925012718121109 0.5 0.6177621272635285
0.9925012718121109 0.5 0.7844287972635283
0.007498728187889139 0.5 0.7155712027364716
0.00749872818788917 0.5 0.8822378727364716
0.9925012718121109 0.5 0.7155712027364716
0.9925012718121109 0.5 0.8822378727364717
0.038816948187889146 0.5 0.5344287972635284
0.961183051812111 0.5 0.5344287972635285
