poscar.py
1.0
14.2473 0.0 0.0
0.0 14.2473 0.0
0.0 0.0 14.2473
C Si
54 1
Direct
0.992296373839693 0.125215811162029 0.125215811162029
0.125215811162029 0.992296373839693 0.125215811162029
0.125215811162029 0.125215811162029 0.992296373839693
0.0603132372629247 0.1850183129284844 0.1850183129284844
0.1850183129284844 0.0603132372629247 0.1850183129284844
0.1850183129284844 0.1850183129284844 0.0603132372629247
0.2502749849761727 0.999509551185831 0.999509551185831
0.2481093523413591 0.1234959657115127 0.1234959657115127
0.8731307995842599 0.9995662939375691 0.1279591148113539
0.8731307995842599 0.1279591148113539 0.9995662939375691
0.8122250150238273 0.062990448814169 0.062990448814169
0.9345408851886461 0.0629337060624309 0.1893692004157401
0.9345408851886461 0.1893692004157401 0.0629337060624309
0.999509551185831 0.2502749849761727 0.999509551185831
0.1234959657115127 0.2481093523413591 0.1234959657115127
0.2493060901560398 0.2493060901560398 0.9992081589379467
0.873273201162327 0.2515519094421919 0.1250720962463276
0.9995662939375691 0.8731307995842599 0.1279591148113539
0.1279591148113539 0.8731307995842599 0.9995662939375691
0.062990448814169 0.8122250150238273 0.062990448814169
0.0629337060624309 0.9345408851886461 0.1893692004157401
0.1893692004157401 0.9345408851886461 0.0629337060624309
0.2515519094421919 0.873273201162327 0.1250720962463276
0.8774816870715156 0.8774816870715156 0.0021867627370753
0.8131939098439602 0.8131939098439602 0.0632918410620533
0.8109480905578081 0.9374279037536724 0.189226798837673
0.9374279037536724 0.8109480905578081 0.189226798837673
0.937284188837971 0.937284188837971 0.070203626160307
0.999509551185831 0.999509551185831 0.2502749849761727
0.1234959657115127 0.1234959657115127 0.2481093523413591
0.2493060901560398 0.9992081589379467 0.2493060901560398
0.873273201162327 0.1250720962463276 0.2515519094421919
0.9992081589379467 0.2493060901560398 0.2493060901560398
0.1250720962463276 0.873273201162327 0.2515519094421919
0.9995662939375691 0.1279591148113539 0.8731307995842599
0.1279591148113539 0.9995662939375691 0.8731307995842599
0.062990448814169 0.062990448814169 0.8122250150238273
0.0629337060624309 0.1893692004157401 0.9345408851886461
0.1893692004157401 0.0629337060624309 0.9345408851886461
0.2515519094421919 0.1250720962463276 0.873273201162327
0.8774816870715156 0.0021867627370753 0.8774816870715156
0.8131939098439602 0.0632918410620533 0.8131939098439602
0.8109480905578081 0.189226798837673 0.9374279037536724
0.937284188837971 0.070203626160307 0.937284188837971
0.9374279037536724 0.189226798837673 0.8109480905578081
0.1250720962463276 0.2515519094421919 0.873273201162327
0.0021867627370753 0.8774816870715156 0.8774816870715156
0.0632918410620533 0.8131939098439602 0.8131939098439602
0.070203626160307 0.937284188837971 0.937284188837971
0.189226798837673 0.8109480905578081 0.9374279037536724
0.189226798837673 0.9374279037536724 0.8109480905578081
0.8143906476586409 0.9390040342884873 0.9390040342884873
0.9390040342884873 0.8143906476586409 0.9390040342884873
0.9390040342884873 0.9390040342884873 0.8143906476586409
0.031 0.031 0.031
