poscar.py
1.0
14.2473 0.0 0.0
0.0 14.2473 0.0
0.0 0.0 14.2473
C H
18 30
Direct
0.992296373839693 0.125215811162029 0.125215811162029
0.125215811162029 0.992296373839693 0.125215811162029
0.125215811162029 0.125215811162029 0.992296373839693
0.8731307995842599 0.9995662939375691 0.1279591148113539
0.8731307995842599 0.1279591148113539 0.9995662939375691
0.9345408851886461 0.0629337060624309 0.1893692004157401
0.9345408851886461 0.1893692004157401 0.0629337060624309
0.9995662939375691 0.8731307995842599 0.1279591148113539
0.1279591148113539 0.8731307995842599 0.9995662939375691
0.0629337060624309 0.9345408851886461 0.1893692004157401
0.1893692004157401 0.9345408851886461 0.0629337060624309
0.937284188837971 0.937284188837971 0.070203626160307
0.9995662939375691 0.1279591148113539 0.8731307995842599
0.1279591148113539 0.9995662939375691 0.8731307995842599
0.0629337060624309 0.1893692004157401 0.9345408851886461
0.1893692004157401 0.0629337060624309 0.9345408851886461
0.937284188837971 0.070203626160307 0.937284188837971
0.070203626160307 0.937284188837971 0.937284188837971
1.0398029891679987 0.1669850769602949 0.1669850769602949
0.1669850769602949 1.0398029891679987 0.1669850769602949
0.1669850769602949 0.1669850769602949 1.0398029891679987
0.1068929299979297 0.2333597773025895 0.8911976341943466
0.018958667978788497 0.23159813039943777 0.9795868076298408
0.23159813039943777 0.018958667978788497 0.9795868076298408
0.2333597773025895 0.1068929299979297 0.8911976341943466
0.08291319237015915 1.0435413320212115 0.8309018696005621
0.17130236580565325 0.9556070700020703 0.8291402226974105
0.08291319237015915 0.8309018696005621 1.0435413320212115
0.17130236580565325 0.8291402226974105 0.9556070700020703
0.022697010832001402 0.8955149230397051 0.8955149230397051
0.1068929299979297 0.8911976341943466 0.2333597773025895
0.018958667978788497 0.9795868076298408 0.23159813039943777
0.23159813039943777 0.9795868076298408 0.018958667978788497
0.2333597773025895 0.8911976341943466 0.1068929299979297
1.0435413320212115 0.08291319237015915 0.8309018696005621
0.9556070700020703 0.17130236580565325 0.8291402226974105
0.8955149230397051 0.8955149230397051 0.022697010832001402
0.8309018696005621 1.0435413320212115 0.08291319237015915
0.8291402226974105 0.9556070700020703 0.17130236580565325
0.8309018696005621 0.08291319237015915 1.0435413320212115
0.8291402226974105 0.17130236580565325 0.9556070700020703
0.8911976341943466 0.1068929299979297 0.2333597773025895
0.9795868076298408 0.018958667978788497 0.23159813039943777
0.8911976341943466 0.2333597773025895 0.1068929299979297
0.9795868076298408 0.23159813039943777 0.018958667978788497
0.8955149230397051 0.022697010832001402 0.8955149230397051
1.0435413320212115 0.8309018696005621 0.08291319237015915
0.9556070700020703 0.8291402226974105 0.17130236580565325
