poscar.py
1.0
39.26647182049349 0.0 0.0
0.0 30.0 0.0
0.0 0.0 25.56
C B H
6 2 8
Direct
0.12527289 0.5 0.05555556
0.06263644 0.5 0.05555556
0.12527289 0.5 0.11111111
0.09395467 0.5 0.13888889
0.03131822 0.5 0.13888889
0.09395467 0.5 0.97222222
0.09395467 0.5 0.02777778
0.06263644 0.5 0.11111111
0.09395467 0.5 0.18114241112676055
0.03131822 0.5 0.18114241112676055
0.00749872818788915 0.5 0.11776212726352848
0.1490923814067921 0.5 0.03442879618503316
0.038816948187889146 0.5 0.034428797263528495
0.1490923814067921 0.5 0.13223787381496685
0.07013517628648094 0.5 0.9510954623229054
0.11777416140679209 0.5 0.9510954561850332
