poscar.py
1.0
14.2473 0.0 0.0
0.0 14.2473 0.0
0.0 0.0 14.2473
C Si
18 1
Direct
0.992296373839693 0.125215811162029 0.125215811162029
0.125215811162029 0.992296373839693 0.125215811162029
0.125215811162029 0.125215811162029 0.992296373839693
0.8731307995842599 0.9995662939375691 0.1279591148113539
0.8731307995842599 0.1279591148113539 0.9995662939375691
0.9345408851886461 0.0629337060624309 0.1893692004157401
0.9345408851886461 0.1893692004157401 0.0629337060624309
0.9995662939375691 0.8731307995842599 0.1279591148113539
0.1279591148113539 0.8731307995842599 0.9995662939375691
0.0629337060624309 0.9345408851886461 0.1893692004157401
0.1893692004157401 0.9345408851886461 0.0629337060624309
0.937284188837971 0.937284188837971 0.070203626160307
0.9995662939375691 0.1279591148113539 0.8731307995842599
0.1279591148113539 0.9995662939375691 0.8731307995842599
0.0629337060624309 0.1893692004157401 0.9345408851886461
0.1893692004157401 0.0629337060624309 0.9345408851886461
0.937284188837971 0.070203626160307 0.937284188837971
0.070203626160307 0.937284188837971 0.937284188837971
0.031 0.031 0.031
