poscar.py
1.0
17.835 0.0 0.0
0.0 17.835 0.0
0.0 0.0 17.835
C N H
18 1 30
Direct
0.0 0.1 0.1
0.1 0.0 0.1
0.1 0.1 0.0
0.9 0.0 0.1
0.9 0.1 0.0
0.95 0.05 0.15
0.95 0.15 0.05
0.0 0.9 0.1
0.1 0.9 0.0
0.05 0.95 0.15
0.15 0.95 0.05
0.95 0.95 0.05
0.0 0.1 0.9
0.1 0.0 0.9
0.05 0.15 0.95
0.15 0.05 0.95
0.95 0.05 0.95
0.05 0.95 0.95
0.0 0.0 0.0
0.034961496536293574 0.13496149653629358 0.13496149653629358
0.13496149653629358 0.034961496536293574 0.13496149653629358
0.13496149653629358 0.13496149653629358 0.034961496536293574
0.034961496536293574 0.8650385034637065 0.06503850346370643
-0.03496149653629362 0.8650385034637065 0.13496149653629355
0.06503850346370643 0.034961496536293574 0.8650385034637065
0.13496149653629355 -0.03496149653629362 0.8650385034637065
0.06503850346370643 0.8650385034637065 0.034961496536293574
0.13496149653629355 0.8650385034637065 -0.03496149653629362
0.8650385034637065 0.06503850346370643 0.034961496536293574
0.8650385034637065 0.13496149653629355 -0.03496149653629362
0.08496149653629359 0.9150385034637064 0.1849614965362936
0.01503850346370645 0.9849614965362935 0.18496149653629354
0.9150385034637064 0.08496149653629359 0.1849614965362936
0.9849614965362935 0.01503850346370645 0.18496149653629354
0.9150385034637064 0.1849614965362936 0.08496149653629359
0.9849614965362935 0.18496149653629354 0.01503850346370645
0.18496149653629354 0.9849614965362935 0.01503850346370645
0.1849614965362936 0.9150385034637064 0.08496149653629359
0.08496149653629359 0.1849614965362936 0.9150385034637064
0.01503850346370645 0.18496149653629354 0.9849614965362935
0.18496149653629354 0.01503850346370645 0.9849614965362935
0.1849614965362936 0.08496149653629359 0.9150385034637064
0.8650385034637065 0.034961496536293574 0.06503850346370643
0.8650385034637065 -0.03496149653629362 0.13496149653629355
0.034961496536293574 0.06503850346370643 0.8650385034637065
-0.03496149653629362 0.13496149653629355 0.8650385034637065
0.015038503463706382 0.9150385034637064 0.9150385034637064
0.9150385034637064 0.015038503463706382 0.9150385034637064
0.9150385034637064 0.9150385034637064 0.015038503463706382
