poscar.py
1.0
8.753472 -15.161458246631552 0.0
8.753472 15.161458246631552 0.0
0.0 0.0 16.0
N B C Si
3 3 3 1
Direct
0.3809523809571429 0.4761904761857143 0.0
0.6666666666714285 0.47619047618571425 0.0
0.5238095238142857 0.6190476190428571 0.0
0.4761904761857143 0.3809523809571429 0.0
0.6190476190428571 0.6666666666714285 0.0
0.7619047619 0.6666666666714286 0.0
0.4761904761857142 0.5238095238142856 0.0
0.6190476190428571 0.5238095238142857 0.0
0.5238095238142856 0.4761904761857142 0.0
0.6666666666714285 0.6190476190428571 0.0
