poscar.py
1.0
8.7400216172 -15.1381615003 0.0
8.7400216172 15.1381615003 0.0
0.0 0.0 16.0
B N D
46 46 5
Direct
0.0463717997729276 0.0944224843942152 0.2000000000000028
0.0458474746327795 0.2372094516029861 0.2000000000000028
0.0463717997732687 0.3805207439442597 0.2000000000000028
0.0480268734143507 0.5239235904915986 0.2000000000000028
0.0493524899422866 0.6673639730743304 0.2000000000000028
0.049352489943665 0.8105599454418453 0.2000000000000028
0.0480268734136615 0.9526747114955896 0.2000000000000028
0.1905142169649068 0.0958837532245767 0.2000000000000028
0.1883936945303617 0.2369862846006541 0.2000000000000028
0.1883936945317473 0.3799788384999374 0.2000000000000028
0.1905142169642176 0.5232018923095296 0.2000000000000028
0.1917805584311623 0.6667219362097114 0.2000000000000028
0.1920786283008766 0.8103250284352015 0.2000000000000028
0.1917805584315104 0.953630050798985 0.2000000000000028
0.3344205295026867 0.0975744527918252 0.2000000000000028
0.3331671487939332 0.2399252565830352 0.2000000000000028
0.3291926059680534 0.3788820172669745 0.2000000000000028
0.3331671487942742 0.5218133207847941 0.2000000000000028
0.33442052950668 0.665417505283699 0.2000000000000028
0.3346046512685348 0.8094997433670201 0.2000000000000028
0.3346046512674974 0.9536763364747074 0.2000000000000028
0.47681170776535 0.0983198446972153 0.2000000000000028
0.4767646517527027 0.2450119112587998 0.2000000000000028
0.4767646517577333 0.6603241690714441 0.2000000000000028
0.4768117077650018 0.8070632916380305 0.2000000000000028
0.4767932289230359 0.9526823287504484 0.2000000000000028
0.6186380938966636 0.095960902450372 0.2000000000000028
0.6186467244081584 0.2406677686407903 0.2000000000000028
0.6182219028961029 0.3847396748764638 0.2000000000000028
0.618221902899748 0.6620536565928248 0.2000000000000028
0.6186467244088547 0.8065503843419322 0.2000000000000028
0.618638093901005 0.9512486200198325 0.2000000000000028
0.7607694538352519 0.0946704412029149 0.2000000000000028
0.7608599691643363 0.2384591171692563 0.2000000000000028
0.7612388914152604 0.3819495720986126 0.2000000000000028
0.7645021900539604 0.5260352343539836 0.2000000000000028
0.7645021900586499 0.667038384277852 0.2000000000000028
0.7612388914145711 0.8078607478868847 0.2000000000000028
0.760859969169708 0.9509722805732963 0.2000000000000028
0.9033278011225434 0.0942876015126544 0.2000000000000028
0.9033278011272259 0.2376116281841121 0.2000000000000028
0.9039490297119528 0.3810487783043541 0.2000000000000028
0.9057028617228084 0.5245075339990066 0.2000000000000028
0.9073548404441922 0.667963134510515 0.2000000000000028
0.9057028617231495 0.8097667562987212 0.2000000000000028
0.903949029715946 0.9514716799814877 0.2000000000000028
0.0950490721386217 0.0477396876889102 0.2000000000000028
0.0933155161358172 0.1894164844871895 0.2000000000000028
0.0933155161347798 0.3324704602174791 0.2000000000000028
0.0950490721436523 0.4758808130265564 0.2000000000000028
0.0964156272155776 0.6192989789810355 0.2000000000000028
0.0967997138343222 0.7626855712057505 0.2000000000000028
0.0964156272159187 0.9056880768040827 0.2000000000000028
0.2389878453241963 0.0489979947930195 0.2000000000000028
0.2375187555243912 0.1909653395470627 0.2000000000000028
0.2348485676078695 0.3317099980907088 0.2000000000000028
0.2375187555280434 0.4751248445498177 0.2000000000000028
0.2389878453248855 0.6185612791050517 0.2000000000000028
0.2393635325173662 0.7621563950706403 0.2000000000000028
0.2393635325187518 0.9057785660209561 0.2000000000000028
0.3817074418715833 0.0494535877773217 0.2000000000000028
0.3816263401217626 0.1934073341095583 0.2000000000000028
0.379589879504465 0.3349569358180773 0.2000000000000028
0.3795898795091475 0.4732043722635595 0.2000000000000028
0.3816263401210733 0.6167904345817519 0.2000000000000028
0.3817074418769622 0.7608252826717887 0.2000000000000028
0.3817062419475334 0.9051388352587111 0.2000000000000028
0.5235863292039866 0.0488468018190886 0.2000000000000028
0.5235687630881642 0.1948869332946614 0.2000000000000028
0.523385266959707 0.3432828431628465 0.2000000000000028
0.5233852669600552 0.6086738523710906 0.2000000000000028
0.5235687630921575 0.7572532583666884 0.2000000000000028
0.523586329205024 0.9033109559594834 0.2000000000000028
0.6656057260651664 0.0470885773188314 0.2000000000000028
0.6656558851184826 0.1916887504387859 0.2000000000000028
0.6658582505015929 0.3362703673211129 0.2000000000000028
0.6658582505066235 0.7581593117583623 0.2000000000000028
0.6656558851181344 0.9025385632499336 0.2000000000000028
0.8080904741221389 0.046491370915497 0.2000000000000028
0.8080904741177974 0.1901705317761824 0.2000000000000028
0.8085519182185337 0.3338612996617059 0.2000000000000028
0.8102003416120596 0.4772035026430999 0.2000000000000028
0.8123263288067193 0.6204488786906452 0.2000000000000028
0.8102003416124077 0.7615682675458118 0.2000000000000028
0.8085519182192229 0.9032620471317401 0.2000000000000028
0.9510882677844634 0.0466522656881381 0.2000000000000028
0.9506557322084888 0.1896135803897039 0.2000000000000028
0.9510882677848116 0.3330074306695181 0.2000000000000028
0.952598406597879 0.4764363212915086 0.2000000000000028
0.9540814678383924 0.6197786607333313 0.2000000000000028
0.9540814678430678 0.7628742356832774 0.2000000000000028
0.9525984065938857 0.9047335138802524 0.2000000000000028
0.6241788398966222 0.5263751342354297 0.2000000000000028
0.4748706067650872 0.3938743579525195 0.2000000000000028
0.4748706067640569 0.5095676773821083 0.2000000000000028
0.6686107722044525 0.4806281251604076 0.2000000000000028
0.6686107722001111 0.6165540756172305 0.2000000000000028
