poscar.py
1.0
8.753472 -15.161458246631552 0.0
8.753472 15.161458246631552 0.0
0.0 0.0 16.0
N B D
44 44 10
Direct
0.09523809524285715 0.04761904761428571 0.0
0.2380952381 0.0476190476142857 0.0
0.3809523809571429 0.04761904761428573 0.0
0.5238095238142857 0.0476190476142857 0.0
0.6666666666714285 0.04761904761428576 0.0
0.8095238095285713 0.0476190476142857 0.0
0.9523809523857143 0.04761904761428576 0.0
0.09523809524285712 0.19047619047142852 0.0
0.23809523810000002 0.19047619047142858 0.0
0.38095238095714284 0.19047619047142855 0.0
0.5238095238142857 0.19047619047142852 0.0
0.6666666666714285 0.19047619047142855 0.0
0.8095238095285713 0.19047619047142855 0.0
0.9523809523857143 0.19047619047142855 0.0
0.09523809524285717 0.3333333333285714 0.0
0.2380952381 0.3333333333285714 0.0
0.3809523809571429 0.3333333333285714 0.0
0.5238095238142858 0.33333333332857146 0.0
0.6666666666714286 0.3333333333285714 0.0
0.8095238095285713 0.3333333333285713 0.0
0.9523809523857143 0.3333333333285715 0.0
0.09523809524285706 0.4761904761857142 0.0
0.2380952381 0.4761904761857143 0.0
0.8095238095285713 0.4761904761857143 0.0
0.9523809523857143 0.4761904761857143 0.0
0.09523809524285709 0.6190476190428571 0.0
0.2380952381 0.6190476190428572 0.0
0.38095238095714284 0.6190476190428571 0.0
0.8095238095285713 0.6190476190428571 0.0
0.9523809523857141 0.6190476190428571 0.0
0.09523809524285715 0.7619047618999999 0.0
0.2380952381 0.7619047619 0.0
0.38095238095714284 0.7619047618999999 0.0
0.5238095238142857 0.7619047618999999 0.0
0.6666666666714286 0.7619047619 0.0
0.8095238095285713 0.7619047618999999 0.0
0.9523809523857143 0.7619047619000001 0.0
0.09523809524285715 0.9047619047571429 0.0
0.23809523809999994 0.9047619047571429 0.0
0.3809523809571429 0.9047619047571429 0.0
0.5238095238142857 0.9047619047571429 0.0
0.6666666666714285 0.9047619047571427 0.0
0.8095238095285713 0.9047619047571429 0.0
0.9523809523857142 0.9047619047571428 0.0
0.04761904761428571 0.09523809524285715 0.0
0.19047619047142852 0.09523809524285712 0.0
0.3333333333285714 0.09523809524285717 0.0
0.4761904761857142 0.09523809524285706 0.0
0.6190476190428571 0.09523809524285709 0.0
0.7619047618999999 0.09523809524285715 0.0
0.9047619047571429 0.09523809524285715 0.0
0.0476190476142857 0.2380952381 0.0
0.19047619047142858 0.23809523810000002 0.0
0.3333333333285714 0.2380952381 0.0
0.4761904761857143 0.2380952381 0.0
0.6190476190428572 0.2380952381 0.0
0.7619047619 0.2380952381 0.0
0.9047619047571429 0.23809523809999994 0.0
0.04761904761428573 0.3809523809571429 0.0
0.19047619047142855 0.38095238095714284 0.0
0.3333333333285714 0.3809523809571429 0.0
0.6190476190428571 0.38095238095714284 0.0
0.7619047618999999 0.38095238095714284 0.0
0.9047619047571429 0.3809523809571429 0.0
0.0476190476142857 0.5238095238142857 0.0
0.19047619047142852 0.5238095238142857 0.0
0.33333333332857146 0.5238095238142858 0.0
0.7619047618999999 0.5238095238142857 0.0
0.9047619047571429 0.5238095238142857 0.0
0.04761904761428576 0.6666666666714285 0.0
0.19047619047142855 0.6666666666714285 0.0
0.3333333333285714 0.6666666666714286 0.0
0.47619047618571425 0.6666666666714285 0.0
0.9047619047571427 0.6666666666714285 0.0
0.0476190476142857 0.8095238095285713 0.0
0.19047619047142855 0.8095238095285713 0.0
0.3333333333285713 0.8095238095285713 0.0
0.4761904761857143 0.8095238095285713 0.0
0.6190476190428571 0.8095238095285713 0.0
0.7619047618999999 0.8095238095285713 0.0
0.9047619047571429 0.8095238095285713 0.0
0.04761904761428576 0.9523809523857143 0.0
0.19047619047142855 0.9523809523857143 0.0
0.3333333333285715 0.9523809523857143 0.0
0.4761904761857143 0.9523809523857143 0.0
0.6190476190428571 0.9523809523857141 0.0
0.7619047619000001 0.9523809523857143 0.0
0.9047619047571428 0.9523809523857142 0.0
0.5238095238142856 0.4761904761857142 0.0
0.6666666666714285 0.6190476190428571 0.0
0.4761904761857143 0.3809523809571429 0.0
0.6190476190428571 0.6666666666714285 0.0
0.7619047619 0.6666666666714286 0.0
0.5238095238142857 0.6190476190428571 0.0
0.3809523809571429 0.4761904761857143 0.0
0.6666666666714285 0.47619047618571425 0.0
0.4761904761857142 0.5238095238142856 0.0
0.6190476190428571 0.5238095238142857 0.0
