poscar.py
1.0
17.835 0.0 0.0
0.0 17.835 0.0
0.0 0.0 17.835
C N
36 1
Direct
0.0 0.1 0.1
0.1 0.0 0.1
0.1 0.1 0.0
0.05 0.15 0.15
0.15 0.05 0.15
0.15 0.15 0.05
0.2 0.0 0.0
0.2 0.1 0.1
0.9 0.0 0.1
0.9 0.1 0.0
0.85 0.05 0.05
0.95 0.05 0.15
0.95 0.15 0.05
0.0 0.2 0.0
0.1 0.2 0.1
0.0 0.9 0.1
0.1 0.9 0.0
0.05 0.85 0.05
0.05 0.95 0.15
0.15 0.95 0.05
0.9 0.9 0.0
0.95 0.95 0.05
0.0 0.0 0.2
0.1 0.1 0.2
0.0 0.1 0.9
0.1 0.0 0.9
0.05 0.05 0.85
0.05 0.15 0.95
0.15 0.05 0.95
0.9 0.0 0.9
0.95 0.05 0.95
0.0 0.9 0.9
0.05 0.95 0.95
0.85 0.95 0.95
0.95 0.85 0.95
0.95 0.95 0.85
0.0 0.0 0.0
