KPOINTS created by Atomic Simulation Environment
200 
Reciprocal
0.000000 0.000000 0.000000 1.0 
0.018519 0.018519 0.000000 1.0 
0.037037 0.037037 0.000000 1.0 
0.055556 0.055556 0.000000 1.0 
0.074074 0.074074 0.000000 1.0 
0.092593 0.092593 0.000000 1.0 
0.111111 0.111111 0.000000 1.0 
0.129630 0.129630 0.000000 1.0 
0.148148 0.148148 0.000000 1.0 
0.166667 0.166667 0.000000 1.0 
0.185185 0.185185 0.000000 1.0 
0.203704 0.203704 0.000000 1.0 
0.222222 0.222222 0.000000 1.0 
0.240741 0.240741 0.000000 1.0 
0.259259 0.259259 0.000000 1.0 
0.277778 0.277778 0.000000 1.0 
0.296296 0.296296 0.000000 1.0 
0.314815 0.314815 0.000000 1.0 
0.333333 0.333333 0.000000 1.0 
0.351852 0.351852 0.000000 1.0 
0.370370 0.370370 0.000000 1.0 
0.388889 0.388889 0.000000 1.0 
0.407407 0.407407 0.000000 1.0 
0.425926 0.425926 0.000000 1.0 
0.444444 0.444444 0.000000 1.0 
0.462963 0.462963 0.000000 1.0 
0.481481 0.481481 0.000000 1.0 
0.500000 0.500000 0.000000 1.0 
0.518519 0.518519 0.000000 1.0 
0.537037 0.537037 0.000000 1.0 
0.555556 0.555556 0.000000 1.0 
0.574074 0.574074 0.000000 1.0 
0.592593 0.592593 0.000000 1.0 
0.611111 0.611111 0.000000 1.0 
0.629630 0.629630 0.000000 1.0 
0.648148 0.648148 0.000000 1.0 
0.666667 0.666667 0.000000 1.0 
0.685185 0.629630 0.000000 1.0 
0.703704 0.592593 0.000000 1.0 
0.722222 0.555556 0.000000 1.0 
0.740741 0.518519 0.000000 1.0 
0.759259 0.481481 0.000000 1.0 
0.777778 0.444444 0.000000 1.0 
0.796296 0.407407 0.000000 1.0 
0.814815 0.370370 0.000000 1.0 
0.833333 0.333333 0.000000 1.0 
0.851852 0.296296 0.000000 1.0 
0.870370 0.259259 0.000000 1.0 
0.888889 0.222222 0.000000 1.0 
0.907407 0.185185 0.000000 1.0 
0.925926 0.148148 0.000000 1.0 
0.944444 0.111111 0.000000 1.0 
0.962963 0.074074 0.000000 1.0 
0.981481 0.037037 0.000000 1.0 
1.000000 0.000000 0.000000 1.0 
0.968750 0.000000 0.000000 1.0 
0.937500 0.000000 0.000000 1.0 
0.906250 0.000000 0.000000 1.0 
0.875000 0.000000 0.000000 1.0 
0.843750 0.000000 0.000000 1.0 
0.812500 0.000000 0.000000 1.0 
0.781250 0.000000 0.000000 1.0 
0.750000 0.000000 0.000000 1.0 
0.718750 0.000000 0.000000 1.0 
0.687500 0.000000 0.000000 1.0 
0.656250 0.000000 0.000000 1.0 
0.625000 0.000000 0.000000 1.0 
0.593750 0.000000 0.000000 1.0 
0.562500 0.000000 0.000000 1.0 
0.531250 0.000000 0.000000 1.0 
0.500000 0.000000 0.000000 1.0 
0.468750 0.000000 0.000000 1.0 
0.437500 0.000000 0.000000 1.0 
0.406250 0.000000 0.000000 1.0 
0.375000 0.000000 0.000000 1.0 
0.343750 0.000000 0.000000 1.0 
0.312500 0.000000 0.000000 1.0 
0.281250 0.000000 0.000000 1.0 
0.250000 0.000000 0.000000 1.0 
0.218750 0.000000 0.000000 1.0 
0.187500 0.000000 0.000000 1.0 
0.156250 0.000000 0.000000 1.0 
0.125000 0.000000 0.000000 1.0 
0.093750 0.000000 0.000000 1.0 
0.062500 0.000000 0.000000 1.0 
0.031250 0.000000 0.000000 1.0 
0.000000 0.000000 0.000000 1.0 
0.000000 0.000000 0.041667 1.0 
0.000000 0.000000 0.083333 1.0 
0.000000 0.000000 0.125000 1.0 
0.000000 0.000000 0.166667 1.0 
0.000000 0.000000 0.208333 1.0 
0.000000 0.000000 0.250000 1.0 
0.000000 0.000000 0.291667 1.0 
0.000000 0.000000 0.333333 1.0 
0.000000 0.000000 0.375000 1.0 
0.000000 0.000000 0.416667 1.0 
0.000000 0.000000 0.458333 1.0 
0.000000 0.000000 0.500000 1.0 
0.000000 0.000000 0.541667 1.0 
0.000000 0.000000 0.583333 1.0 
0.000000 0.000000 0.625000 1.0 
0.000000 0.000000 0.666667 1.0 
0.000000 0.000000 0.708333 1.0 
0.000000 0.000000 0.750000 1.0 
0.000000 0.000000 0.791667 1.0 
0.000000 0.000000 0.833333 1.0 
0.000000 0.000000 0.875000 1.0 
0.000000 0.000000 0.916667 1.0 
0.000000 0.000000 0.958333 1.0 
0.000000 0.000000 1.000000 1.0 
0.018018 0.018018 1.000000 1.0 
0.036036 0.036036 1.000000 1.0 
0.054054 0.054054 1.000000 1.0 
0.072072 0.072072 1.000000 1.0 
0.090090 0.090090 1.000000 1.0 
0.108108 0.108108 1.000000 1.0 
0.126126 0.126126 1.000000 1.0 
0.144144 0.144144 1.000000 1.0 
0.162162 0.162162 1.000000 1.0 
0.180180 0.180180 1.000000 1.0 
0.198198 0.198198 1.000000 1.0 
0.216216 0.216216 1.000000 1.0 
0.234234 0.234234 1.000000 1.0 
0.252252 0.252252 1.000000 1.0 
0.270270 0.270270 1.000000 1.0 
0.288288 0.288288 1.000000 1.0 
0.306306 0.306306 1.000000 1.0 
0.324324 0.324324 1.000000 1.0 
0.342342 0.342342 1.000000 1.0 
0.360360 0.360360 1.000000 1.0 
0.378378 0.378378 1.000000 1.0 
0.396396 0.396396 1.000000 1.0 
0.414414 0.414414 1.000000 1.0 
0.432432 0.432432 1.000000 1.0 
0.450450 0.450450 1.000000 1.0 
0.468468 0.468468 1.000000 1.0 
0.486486 0.486486 1.000000 1.0 
0.504505 0.504505 1.000000 1.0 
0.522523 0.522523 1.000000 1.0 
0.540541 0.540541 1.000000 1.0 
0.558559 0.558559 1.000000 1.0 
0.576577 0.576577 1.000000 1.0 
0.594595 0.594595 1.000000 1.0 
0.612613 0.612613 1.000000 1.0 
0.630631 0.630631 1.000000 1.0 
0.648649 0.648649 1.000000 1.0 
0.666667 0.666667 1.000000 1.0 
0.685185 0.629630 1.000000 1.0 
0.703704 0.592593 1.000000 1.0 
0.722222 0.555556 1.000000 1.0 
0.740741 0.518519 1.000000 1.0 
0.759259 0.481481 1.000000 1.0 
0.777778 0.444444 1.000000 1.0 
0.796296 0.407407 1.000000 1.0 
0.814815 0.370370 1.000000 1.0 
0.833333 0.333333 1.000000 1.0 
0.851852 0.296296 1.000000 1.0 
0.870370 0.259259 1.000000 1.0 
0.888889 0.222222 1.000000 1.0 
0.907407 0.185185 1.000000 1.0 
0.925926 0.148148 1.000000 1.0 
0.944444 0.111111 1.000000 1.0 
0.962963 0.074074 1.000000 1.0 
0.981481 0.037037 1.000000 1.0 
1.000000 0.000000 1.000000 1.0 
0.970588 0.000000 1.000000 1.0 
0.941176 0.000000 1.000000 1.0 
0.911765 0.000000 1.000000 1.0 
0.882353 0.000000 1.000000 1.0 
0.852941 0.000000 1.000000 1.0 
0.823529 0.000000 1.000000 1.0 
0.794118 0.000000 1.000000 1.0 
0.764706 0.000000 1.000000 1.0 
0.735294 0.000000 1.000000 1.0 
0.705882 0.000000 1.000000 1.0 
0.676471 0.000000 1.000000 1.0 
0.647059 0.000000 1.000000 1.0 
0.617647 0.000000 1.000000 1.0 
0.588235 0.000000 1.000000 1.0 
0.558824 0.000000 1.000000 1.0 
0.529412 0.000000 1.000000 1.0 
0.500000 0.000000 1.000000 1.0 
0.470588 0.000000 1.000000 1.0 
0.441176 0.000000 1.000000 1.0 
0.411765 0.000000 1.000000 1.0 
0.382353 0.000000 1.000000 1.0 
0.352941 0.000000 1.000000 1.0 
0.323529 0.000000 1.000000 1.0 
0.294118 0.000000 1.000000 1.0 
0.264706 0.000000 1.000000 1.0 
0.235294 0.000000 1.000000 1.0 
0.205882 0.000000 1.000000 1.0 
0.176471 0.000000 1.000000 1.0 
0.147059 0.000000 1.000000 1.0 
0.117647 0.000000 1.000000 1.0 
0.088235 0.000000 1.000000 1.0 
0.058824 0.000000 1.000000 1.0 
0.029412 0.000000 1.000000 1.0 
0.000000 0.000000 1.000000 1.0 
