Mg  B 
 1.0000000000000000
     6.1473599999999999    0.0000000000000000    0.0000000000000000
    -3.0736800000000000    5.3237699999999997    0.0000000000000000
     0.0000000000000000    0.0000000000000000    7.0686999999999998
   8  16
Cartesian
  0.0000000000000000  0.0000000000000000  0.0000000000000000
  0.0000000000000000  0.0000000000000000  3.5343499999999999
 -1.5368400000000000  2.6618849999999998  0.0000000000000000
 -1.5368400000000000  2.6618849999999998  3.5343499999999999
  3.0736800000000000  0.0000000000000000  0.0000000000000000
  3.0736800000000000  0.0000000000000000  3.5343499999999999
  1.5368400000000000  2.6618849999999998  0.0000000000000000
  1.5368400000000000  2.6618849999999998  3.5343499999999999
 -0.0000015368400001  1.7745908872949996  1.7671749999999999
  1.5368415368400004  0.8872941127049999  1.7671749999999999
 -0.0000015368400001  1.7745908872949996  5.3015249999999998
  1.5368415368400004  0.8872941127049999  5.3015249999999998
 -1.5368415368400001  4.4364758872949999  1.7671749999999999
  0.0000015368400004  3.5491791127049996  1.7671749999999999
 -1.5368415368400001  4.4364758872949999  5.3015249999999998
  0.0000015368400004  3.5491791127049996  5.3015249999999998
  3.0736784631599998  1.7745908872949996  1.7671749999999999
  4.6105215368400003  0.8872941127049999  1.7671749999999999
  3.0736784631599998  1.7745908872949996  5.3015249999999998
  4.6105215368400003  0.8872941127049999  5.3015249999999998
  1.5368384631599998  4.4364758872949999  1.7671749999999999
  3.0736815368400006  3.5491791127049996  1.7671749999999999
  1.5368384631599998  4.4364758872949999  5.3015249999999998
  3.0736815368400006  3.5491791127049996  5.3015249999999998
