#************************************************************************************
#*                  Generated by cif2cell 1.2.10 2021-01-07 11:38                   *
#*  T. Bjorkman, Comp. Phys. Commun. 182, 1183-1186 (2011). Please cite generously. *
#*                                                                                  *
#*                                     Fe   ()                                      *
#*             Failed to get author information, No journal information             *
#************************************************************************************
&CONTROL
    calculation = 'scf',
    prefix =     'Fe',
    restart_mode='from_scratch',
    pseudo_dir='.',
    outdir = '.', 
    wf_collect = .true.
 /
&SYSTEM
    ibrav = 0
    A =    2.45956
    nat = 1
    ntyp = 1
    nbnd = 24
    ecutrho = 600.0,
    ecutwfc = 75.0, 
    occupations='smearing',
    nosym = .TRUE., noinv = .TRUE.
    smearing='marzari-vanderbilt',
    degauss=0.05,
    nspin = 2,
    starting_magnetization(1)= 0.7
/
&electrons
 conv_thr = 1.0d-10
 mixing_beta = 0.7
 /
CELL_PARAMETERS {alat}
  1.000000000000000   0.000000000000000   0.000000000000000 
 -0.333333333333333   0.942809041608189   0.000000000000000 
 -0.333333333333333  -0.471404520647340   0.816496581040854 
ATOMIC_SPECIES
  Fe   55.84500  Fe.pbe-spn-kjpaw_psl.1.0.0.UPF
ATOMIC_POSITIONS {crystal}
Fe   0.000000000000000   0.000000000000000   0.000000000000000 

K_POINTS crystal
8192
  0.00000000   0.00000000   0.00000000   1.00000000
  0.00000000   0.00000000   0.06250000   1.00000000
  0.00000000   0.00000000   0.12500000   1.00000000
  0.00000000   0.00000000   0.18750000   1.00000000
  0.00000000   0.00000000   0.25000000   1.00000000
  0.00000000   0.00000000   0.31250000   1.00000000
  0.00000000   0.00000000   0.37500000   1.00000000
  0.00000000   0.00000000   0.43750000   1.00000000
  0.00000000   0.00000000   0.50000000   1.00000000
  0.00000000   0.00000000   0.56250000   1.00000000
  0.00000000   0.00000000   0.62500000   1.00000000
  0.00000000   0.00000000   0.68750000   1.00000000
  0.00000000   0.00000000   0.75000000   1.00000000
  0.00000000   0.00000000   0.81250000   1.00000000
  0.00000000   0.00000000   0.87500000   1.00000000
  0.00000000   0.00000000   0.93750000   1.00000000
  0.00000000   0.06250000   0.00000000   1.00000000
  0.00000000   0.06250000   0.06250000   1.00000000
  0.00000000   0.06250000   0.12500000   1.00000000
  0.00000000   0.06250000   0.18750000   1.00000000
  0.00000000   0.06250000   0.25000000   1.00000000
  0.00000000   0.06250000   0.31250000   1.00000000
  0.00000000   0.06250000   0.37500000   1.00000000
  0.00000000   0.06250000   0.43750000   1.00000000
  0.00000000   0.06250000   0.50000000   1.00000000
  0.00000000   0.06250000   0.56250000   1.00000000
  0.00000000   0.06250000   0.62500000   1.00000000
  0.00000000   0.06250000   0.68750000   1.00000000
  0.00000000   0.06250000   0.75000000   1.00000000
  0.00000000   0.06250000   0.81250000   1.00000000
  0.00000000   0.06250000   0.87500000   1.00000000
  0.00000000   0.06250000   0.93750000   1.00000000
  0.00000000   0.12500000   0.00000000   1.00000000
  0.00000000   0.12500000   0.06250000   1.00000000
  0.00000000   0.12500000   0.12500000   1.00000000
  0.00000000   0.12500000   0.18750000   1.00000000
  0.00000000   0.12500000   0.25000000   1.00000000
  0.00000000   0.12500000   0.31250000   1.00000000
  0.00000000   0.12500000   0.37500000   1.00000000
  0.00000000   0.12500000   0.43750000   1.00000000
  0.00000000   0.12500000   0.50000000   1.00000000
  0.00000000   0.12500000   0.56250000   1.00000000
  0.00000000   0.12500000   0.62500000   1.00000000
  0.00000000   0.12500000   0.68750000   1.00000000
  0.00000000   0.12500000   0.75000000   1.00000000
  0.00000000   0.12500000   0.81250000   1.00000000
  0.00000000   0.12500000   0.87500000   1.00000000
  0.00000000   0.12500000   0.93750000   1.00000000
  0.00000000   0.18750000   0.00000000   1.00000000
  0.00000000   0.18750000   0.06250000   1.00000000
  0.00000000   0.18750000   0.12500000   1.00000000
  0.00000000   0.18750000   0.18750000   1.00000000
  0.00000000   0.18750000   0.25000000   1.00000000
  0.00000000   0.18750000   0.31250000   1.00000000
  0.00000000   0.18750000   0.37500000   1.00000000
  0.00000000   0.18750000   0.43750000   1.00000000
  0.00000000   0.18750000   0.50000000   1.00000000
  0.00000000   0.18750000   0.56250000   1.00000000
  0.00000000   0.18750000   0.62500000   1.00000000
  0.00000000   0.18750000   0.68750000   1.00000000
  0.00000000   0.18750000   0.75000000   1.00000000
  0.00000000   0.18750000   0.81250000   1.00000000
  0.00000000   0.18750000   0.87500000   1.00000000
  0.00000000   0.18750000   0.93750000   1.00000000
  0.00000000   0.25000000   0.00000000   1.00000000
  0.00000000   0.25000000   0.06250000   1.00000000
  0.00000000   0.25000000   0.12500000   1.00000000
  0.00000000   0.25000000   0.18750000   1.00000000
  0.00000000   0.25000000   0.25000000   1.00000000
  0.00000000   0.25000000   0.31250000   1.00000000
  0.00000000   0.25000000   0.37500000   1.00000000
  0.00000000   0.25000000   0.43750000   1.00000000
  0.00000000   0.25000000   0.50000000   1.00000000
  0.00000000   0.25000000   0.56250000   1.00000000
  0.00000000   0.25000000   0.62500000   1.00000000
  0.00000000   0.25000000   0.68750000   1.00000000
  0.00000000   0.25000000   0.75000000   1.00000000
  0.00000000   0.25000000   0.81250000   1.00000000
  0.00000000   0.25000000   0.87500000   1.00000000
  0.00000000   0.25000000   0.93750000   1.00000000
  0.00000000   0.31250000   0.00000000   1.00000000
  0.00000000   0.31250000   0.06250000   1.00000000
  0.00000000   0.31250000   0.12500000   1.00000000
  0.00000000   0.31250000   0.18750000   1.00000000
  0.00000000   0.31250000   0.25000000   1.00000000
  0.00000000   0.31250000   0.31250000   1.00000000
  0.00000000   0.31250000   0.37500000   1.00000000
  0.00000000   0.31250000   0.43750000   1.00000000
  0.00000000   0.31250000   0.50000000   1.00000000
  0.00000000   0.31250000   0.56250000   1.00000000
  0.00000000   0.31250000   0.62500000   1.00000000
  0.00000000   0.31250000   0.68750000   1.00000000
  0.00000000   0.31250000   0.75000000   1.00000000
  0.00000000   0.31250000   0.81250000   1.00000000
  0.00000000   0.31250000   0.87500000   1.00000000
  0.00000000   0.31250000   0.93750000   1.00000000
  0.00000000   0.37500000   0.00000000   1.00000000
  0.00000000   0.37500000   0.06250000   1.00000000
  0.00000000   0.37500000   0.12500000   1.00000000
  0.00000000   0.37500000   0.18750000   1.00000000
  0.00000000   0.37500000   0.25000000   1.00000000
  0.00000000   0.37500000   0.31250000   1.00000000
  0.00000000   0.37500000   0.37500000   1.00000000
  0.00000000   0.37500000   0.43750000   1.00000000
  0.00000000   0.37500000   0.50000000   1.00000000
  0.00000000   0.37500000   0.56250000   1.00000000
  0.00000000   0.37500000   0.62500000   1.00000000
  0.00000000   0.37500000   0.68750000   1.00000000
  0.00000000   0.37500000   0.75000000   1.00000000
  0.00000000   0.37500000   0.81250000   1.00000000
  0.00000000   0.37500000   0.87500000   1.00000000
  0.00000000   0.37500000   0.93750000   1.00000000
  0.00000000   0.43750000   0.00000000   1.00000000
  0.00000000   0.43750000   0.06250000   1.00000000
  0.00000000   0.43750000   0.12500000   1.00000000
  0.00000000   0.43750000   0.18750000   1.00000000
  0.00000000   0.43750000   0.25000000   1.00000000
  0.00000000   0.43750000   0.31250000   1.00000000
  0.00000000   0.43750000   0.37500000   1.00000000
  0.00000000   0.43750000   0.43750000   1.00000000
  0.00000000   0.43750000   0.50000000   1.00000000
  0.00000000   0.43750000   0.56250000   1.00000000
  0.00000000   0.43750000   0.62500000   1.00000000
  0.00000000   0.43750000   0.68750000   1.00000000
  0.00000000   0.43750000   0.75000000   1.00000000
  0.00000000   0.43750000   0.81250000   1.00000000
  0.00000000   0.43750000   0.87500000   1.00000000
  0.00000000   0.43750000   0.93750000   1.00000000
  0.00000000   0.50000000   0.00000000   1.00000000
  0.00000000   0.50000000   0.06250000   1.00000000
  0.00000000   0.50000000   0.12500000   1.00000000
  0.00000000   0.50000000   0.18750000   1.00000000
  0.00000000   0.50000000   0.25000000   1.00000000
  0.00000000   0.50000000   0.31250000   1.00000000
  0.00000000   0.50000000   0.37500000   1.00000000
  0.00000000   0.50000000   0.43750000   1.00000000
  0.00000000   0.50000000   0.50000000   1.00000000
  0.00000000   0.50000000   0.56250000   1.00000000
  0.00000000   0.50000000   0.62500000   1.00000000
  0.00000000   0.50000000   0.68750000   1.00000000
  0.00000000   0.50000000   0.75000000   1.00000000
  0.00000000   0.50000000   0.81250000   1.00000000
  0.00000000   0.50000000   0.87500000   1.00000000
  0.00000000   0.50000000   0.93750000   1.00000000
  0.00000000   0.56250000   0.00000000   1.00000000
  0.00000000   0.56250000   0.06250000   1.00000000
  0.00000000   0.56250000   0.12500000   1.00000000
  0.00000000   0.56250000   0.18750000   1.00000000
  0.00000000   0.56250000   0.25000000   1.00000000
  0.00000000   0.56250000   0.31250000   1.00000000
  0.00000000   0.56250000   0.37500000   1.00000000
  0.00000000   0.56250000   0.43750000   1.00000000
  0.00000000   0.56250000   0.50000000   1.00000000
  0.00000000   0.56250000   0.56250000   1.00000000
  0.00000000   0.56250000   0.62500000   1.00000000
  0.00000000   0.56250000   0.68750000   1.00000000
  0.00000000   0.56250000   0.75000000   1.00000000
  0.00000000   0.56250000   0.81250000   1.00000000
  0.00000000   0.56250000   0.87500000   1.00000000
  0.00000000   0.56250000   0.93750000   1.00000000
  0.00000000   0.62500000   0.00000000   1.00000000
  0.00000000   0.62500000   0.06250000   1.00000000
  0.00000000   0.62500000   0.12500000   1.00000000
  0.00000000   0.62500000   0.18750000   1.00000000
  0.00000000   0.62500000   0.25000000   1.00000000
  0.00000000   0.62500000   0.31250000   1.00000000
  0.00000000   0.62500000   0.37500000   1.00000000
  0.00000000   0.62500000   0.43750000   1.00000000
  0.00000000   0.62500000   0.50000000   1.00000000
  0.00000000   0.62500000   0.56250000   1.00000000
  0.00000000   0.62500000   0.62500000   1.00000000
  0.00000000   0.62500000   0.68750000   1.00000000
  0.00000000   0.62500000   0.75000000   1.00000000
  0.00000000   0.62500000   0.81250000   1.00000000
  0.00000000   0.62500000   0.87500000   1.00000000
  0.00000000   0.62500000   0.93750000   1.00000000
  0.00000000   0.68750000   0.00000000   1.00000000
  0.00000000   0.68750000   0.06250000   1.00000000
  0.00000000   0.68750000   0.12500000   1.00000000
  0.00000000   0.68750000   0.18750000   1.00000000
  0.00000000   0.68750000   0.25000000   1.00000000
  0.00000000   0.68750000   0.31250000   1.00000000
  0.00000000   0.68750000   0.37500000   1.00000000
  0.00000000   0.68750000   0.43750000   1.00000000
  0.00000000   0.68750000   0.50000000   1.00000000
  0.00000000   0.68750000   0.56250000   1.00000000
  0.00000000   0.68750000   0.62500000   1.00000000
  0.00000000   0.68750000   0.68750000   1.00000000
  0.00000000   0.68750000   0.75000000   1.00000000
  0.00000000   0.68750000   0.81250000   1.00000000
  0.00000000   0.68750000   0.87500000   1.00000000
  0.00000000   0.68750000   0.93750000   1.00000000
  0.00000000   0.75000000   0.00000000   1.00000000
  0.00000000   0.75000000   0.06250000   1.00000000
  0.00000000   0.75000000   0.12500000   1.00000000
  0.00000000   0.75000000   0.18750000   1.00000000
  0.00000000   0.75000000   0.25000000   1.00000000
  0.00000000   0.75000000   0.31250000   1.00000000
  0.00000000   0.75000000   0.37500000   1.00000000
  0.00000000   0.75000000   0.43750000   1.00000000
  0.00000000   0.75000000   0.50000000   1.00000000
  0.00000000   0.75000000   0.56250000   1.00000000
  0.00000000   0.75000000   0.62500000   1.00000000
  0.00000000   0.75000000   0.68750000   1.00000000
  0.00000000   0.75000000   0.75000000   1.00000000
  0.00000000   0.75000000   0.81250000   1.00000000
  0.00000000   0.75000000   0.87500000   1.00000000
  0.00000000   0.75000000   0.93750000   1.00000000
  0.00000000   0.81250000   0.00000000   1.00000000
  0.00000000   0.81250000   0.06250000   1.00000000
  0.00000000   0.81250000   0.12500000   1.00000000
  0.00000000   0.81250000   0.18750000   1.00000000
  0.00000000   0.81250000   0.25000000   1.00000000
  0.00000000   0.81250000   0.31250000   1.00000000
  0.00000000   0.81250000   0.37500000   1.00000000
  0.00000000   0.81250000   0.43750000   1.00000000
  0.00000000   0.81250000   0.50000000   1.00000000
  0.00000000   0.81250000   0.56250000   1.00000000
  0.00000000   0.81250000   0.62500000   1.00000000
  0.00000000   0.81250000   0.68750000   1.00000000
  0.00000000   0.81250000   0.75000000   1.00000000
  0.00000000   0.81250000   0.81250000   1.00000000
  0.00000000   0.81250000   0.87500000   1.00000000
  0.00000000   0.81250000   0.93750000   1.00000000
  0.00000000   0.87500000   0.00000000   1.00000000
  0.00000000   0.87500000   0.06250000   1.00000000
  0.00000000   0.87500000   0.12500000   1.00000000
  0.00000000   0.87500000   0.18750000   1.00000000
  0.00000000   0.87500000   0.25000000   1.00000000
  0.00000000   0.87500000   0.31250000   1.00000000
  0.00000000   0.87500000   0.37500000   1.00000000
  0.00000000   0.87500000   0.43750000   1.00000000
  0.00000000   0.87500000   0.50000000   1.00000000
  0.00000000   0.87500000   0.56250000   1.00000000
  0.00000000   0.87500000   0.62500000   1.00000000
  0.00000000   0.87500000   0.68750000   1.00000000
  0.00000000   0.87500000   0.75000000   1.00000000
  0.00000000   0.87500000   0.81250000   1.00000000
  0.00000000   0.87500000   0.87500000   1.00000000
  0.00000000   0.87500000   0.93750000   1.00000000
  0.00000000   0.93750000   0.00000000   1.00000000
  0.00000000   0.93750000   0.06250000   1.00000000
  0.00000000   0.93750000   0.12500000   1.00000000
  0.00000000   0.93750000   0.18750000   1.00000000
  0.00000000   0.93750000   0.25000000   1.00000000
  0.00000000   0.93750000   0.31250000   1.00000000
  0.00000000   0.93750000   0.37500000   1.00000000
  0.00000000   0.93750000   0.43750000   1.00000000
  0.00000000   0.93750000   0.50000000   1.00000000
  0.00000000   0.93750000   0.56250000   1.00000000
  0.00000000   0.93750000   0.62500000   1.00000000
  0.00000000   0.93750000   0.68750000   1.00000000
  0.00000000   0.93750000   0.75000000   1.00000000
  0.00000000   0.93750000   0.81250000   1.00000000
  0.00000000   0.93750000   0.87500000   1.00000000
  0.00000000   0.93750000   0.93750000   1.00000000
  0.06250000   0.00000000   0.00000000   1.00000000
  0.06250000   0.00000000   0.06250000   1.00000000
  0.06250000   0.00000000   0.12500000   1.00000000
  0.06250000   0.00000000   0.18750000   1.00000000
  0.06250000   0.00000000   0.25000000   1.00000000
  0.06250000   0.00000000   0.31250000   1.00000000
  0.06250000   0.00000000   0.37500000   1.00000000
  0.06250000   0.00000000   0.43750000   1.00000000
  0.06250000   0.00000000   0.50000000   1.00000000
  0.06250000   0.00000000   0.56250000   1.00000000
  0.06250000   0.00000000   0.62500000   1.00000000
  0.06250000   0.00000000   0.68750000   1.00000000
  0.06250000   0.00000000   0.75000000   1.00000000
  0.06250000   0.00000000   0.81250000   1.00000000
  0.06250000   0.00000000   0.87500000   1.00000000
  0.06250000   0.00000000   0.93750000   1.00000000
  0.06250000   0.06250000   0.00000000   1.00000000
  0.06250000   0.06250000   0.06250000   1.00000000
  0.06250000   0.06250000   0.12500000   1.00000000
  0.06250000   0.06250000   0.18750000   1.00000000
  0.06250000   0.06250000   0.25000000   1.00000000
  0.06250000   0.06250000   0.31250000   1.00000000
  0.06250000   0.06250000   0.37500000   1.00000000
  0.06250000   0.06250000   0.43750000   1.00000000
  0.06250000   0.06250000   0.50000000   1.00000000
  0.06250000   0.06250000   0.56250000   1.00000000
  0.06250000   0.06250000   0.62500000   1.00000000
  0.06250000   0.06250000   0.68750000   1.00000000
  0.06250000   0.06250000   0.75000000   1.00000000
  0.06250000   0.06250000   0.81250000   1.00000000
  0.06250000   0.06250000   0.87500000   1.00000000
  0.06250000   0.06250000   0.93750000   1.00000000
  0.06250000   0.12500000   0.00000000   1.00000000
  0.06250000   0.12500000   0.06250000   1.00000000
  0.06250000   0.12500000   0.12500000   1.00000000
  0.06250000   0.12500000   0.18750000   1.00000000
  0.06250000   0.12500000   0.25000000   1.00000000
  0.06250000   0.12500000   0.31250000   1.00000000
  0.06250000   0.12500000   0.37500000   1.00000000
  0.06250000   0.12500000   0.43750000   1.00000000
  0.06250000   0.12500000   0.50000000   1.00000000
  0.06250000   0.12500000   0.56250000   1.00000000
  0.06250000   0.12500000   0.62500000   1.00000000
  0.06250000   0.12500000   0.68750000   1.00000000
  0.06250000   0.12500000   0.75000000   1.00000000
  0.06250000   0.12500000   0.81250000   1.00000000
  0.06250000   0.12500000   0.87500000   1.00000000
  0.06250000   0.12500000   0.93750000   1.00000000
  0.06250000   0.18750000   0.00000000   1.00000000
  0.06250000   0.18750000   0.06250000   1.00000000
  0.06250000   0.18750000   0.12500000   1.00000000
  0.06250000   0.18750000   0.18750000   1.00000000
  0.06250000   0.18750000   0.25000000   1.00000000
  0.06250000   0.18750000   0.31250000   1.00000000
  0.06250000   0.18750000   0.37500000   1.00000000
  0.06250000   0.18750000   0.43750000   1.00000000
  0.06250000   0.18750000   0.50000000   1.00000000
  0.06250000   0.18750000   0.56250000   1.00000000
  0.06250000   0.18750000   0.62500000   1.00000000
  0.06250000   0.18750000   0.68750000   1.00000000
  0.06250000   0.18750000   0.75000000   1.00000000
  0.06250000   0.18750000   0.81250000   1.00000000
  0.06250000   0.18750000   0.87500000   1.00000000
  0.06250000   0.18750000   0.93750000   1.00000000
  0.06250000   0.25000000   0.00000000   1.00000000
  0.06250000   0.25000000   0.06250000   1.00000000
  0.06250000   0.25000000   0.12500000   1.00000000
  0.06250000   0.25000000   0.18750000   1.00000000
  0.06250000   0.25000000   0.25000000   1.00000000
  0.06250000   0.25000000   0.31250000   1.00000000
  0.06250000   0.25000000   0.37500000   1.00000000
  0.06250000   0.25000000   0.43750000   1.00000000
  0.06250000   0.25000000   0.50000000   1.00000000
  0.06250000   0.25000000   0.56250000   1.00000000
  0.06250000   0.25000000   0.62500000   1.00000000
  0.06250000   0.25000000   0.68750000   1.00000000
  0.06250000   0.25000000   0.75000000   1.00000000
  0.06250000   0.25000000   0.81250000   1.00000000
  0.06250000   0.25000000   0.87500000   1.00000000
  0.06250000   0.25000000   0.93750000   1.00000000
  0.06250000   0.31250000   0.00000000   1.00000000
  0.06250000   0.31250000   0.06250000   1.00000000
  0.06250000   0.31250000   0.12500000   1.00000000
  0.06250000   0.31250000   0.18750000   1.00000000
  0.06250000   0.31250000   0.25000000   1.00000000
  0.06250000   0.31250000   0.31250000   1.00000000
  0.06250000   0.31250000   0.37500000   1.00000000
  0.06250000   0.31250000   0.43750000   1.00000000
  0.06250000   0.31250000   0.50000000   1.00000000
  0.06250000   0.31250000   0.56250000   1.00000000
  0.06250000   0.31250000   0.62500000   1.00000000
  0.06250000   0.31250000   0.68750000   1.00000000
  0.06250000   0.31250000   0.75000000   1.00000000
  0.06250000   0.31250000   0.81250000   1.00000000
  0.06250000   0.31250000   0.87500000   1.00000000
  0.06250000   0.31250000   0.93750000   1.00000000
  0.06250000   0.37500000   0.00000000   1.00000000
  0.06250000   0.37500000   0.06250000   1.00000000
  0.06250000   0.37500000   0.12500000   1.00000000
  0.06250000   0.37500000   0.18750000   1.00000000
  0.06250000   0.37500000   0.25000000   1.00000000
  0.06250000   0.37500000   0.31250000   1.00000000
  0.06250000   0.37500000   0.37500000   1.00000000
  0.06250000   0.37500000   0.43750000   1.00000000
  0.06250000   0.37500000   0.50000000   1.00000000
  0.06250000   0.37500000   0.56250000   1.00000000
  0.06250000   0.37500000   0.62500000   1.00000000
  0.06250000   0.37500000   0.68750000   1.00000000
  0.06250000   0.37500000   0.75000000   1.00000000
  0.06250000   0.37500000   0.81250000   1.00000000
  0.06250000   0.37500000   0.87500000   1.00000000
  0.06250000   0.37500000   0.93750000   1.00000000
  0.06250000   0.43750000   0.00000000   1.00000000
  0.06250000   0.43750000   0.06250000   1.00000000
  0.06250000   0.43750000   0.12500000   1.00000000
  0.06250000   0.43750000   0.18750000   1.00000000
  0.06250000   0.43750000   0.25000000   1.00000000
  0.06250000   0.43750000   0.31250000   1.00000000
  0.06250000   0.43750000   0.37500000   1.00000000
  0.06250000   0.43750000   0.43750000   1.00000000
  0.06250000   0.43750000   0.50000000   1.00000000
  0.06250000   0.43750000   0.56250000   1.00000000
  0.06250000   0.43750000   0.62500000   1.00000000
  0.06250000   0.43750000   0.68750000   1.00000000
  0.06250000   0.43750000   0.75000000   1.00000000
  0.06250000   0.43750000   0.81250000   1.00000000
  0.06250000   0.43750000   0.87500000   1.00000000
  0.06250000   0.43750000   0.93750000   1.00000000
  0.06250000   0.50000000   0.00000000   1.00000000
  0.06250000   0.50000000   0.06250000   1.00000000
  0.06250000   0.50000000   0.12500000   1.00000000
  0.06250000   0.50000000   0.18750000   1.00000000
  0.06250000   0.50000000   0.25000000   1.00000000
  0.06250000   0.50000000   0.31250000   1.00000000
  0.06250000   0.50000000   0.37500000   1.00000000
  0.06250000   0.50000000   0.43750000   1.00000000
  0.06250000   0.50000000   0.50000000   1.00000000
  0.06250000   0.50000000   0.56250000   1.00000000
  0.06250000   0.50000000   0.62500000   1.00000000
  0.06250000   0.50000000   0.68750000   1.00000000
  0.06250000   0.50000000   0.75000000   1.00000000
  0.06250000   0.50000000   0.81250000   1.00000000
  0.06250000   0.50000000   0.87500000   1.00000000
  0.06250000   0.50000000   0.93750000   1.00000000
  0.06250000   0.56250000   0.00000000   1.00000000
  0.06250000   0.56250000   0.06250000   1.00000000
  0.06250000   0.56250000   0.12500000   1.00000000
  0.06250000   0.56250000   0.18750000   1.00000000
  0.06250000   0.56250000   0.25000000   1.00000000
  0.06250000   0.56250000   0.31250000   1.00000000
  0.06250000   0.56250000   0.37500000   1.00000000
  0.06250000   0.56250000   0.43750000   1.00000000
  0.06250000   0.56250000   0.50000000   1.00000000
  0.06250000   0.56250000   0.56250000   1.00000000
  0.06250000   0.56250000   0.62500000   1.00000000
  0.06250000   0.56250000   0.68750000   1.00000000
  0.06250000   0.56250000   0.75000000   1.00000000
  0.06250000   0.56250000   0.81250000   1.00000000
  0.06250000   0.56250000   0.87500000   1.00000000
  0.06250000   0.56250000   0.93750000   1.00000000
  0.06250000   0.62500000   0.00000000   1.00000000
  0.06250000   0.62500000   0.06250000   1.00000000
  0.06250000   0.62500000   0.12500000   1.00000000
  0.06250000   0.62500000   0.18750000   1.00000000
  0.06250000   0.62500000   0.25000000   1.00000000
  0.06250000   0.62500000   0.31250000   1.00000000
  0.06250000   0.62500000   0.37500000   1.00000000
  0.06250000   0.62500000   0.43750000   1.00000000
  0.06250000   0.62500000   0.50000000   1.00000000
  0.06250000   0.62500000   0.56250000   1.00000000
  0.06250000   0.62500000   0.62500000   1.00000000
  0.06250000   0.62500000   0.68750000   1.00000000
  0.06250000   0.62500000   0.75000000   1.00000000
  0.06250000   0.62500000   0.81250000   1.00000000
  0.06250000   0.62500000   0.87500000   1.00000000
  0.06250000   0.62500000   0.93750000   1.00000000
  0.06250000   0.68750000   0.00000000   1.00000000
  0.06250000   0.68750000   0.06250000   1.00000000
  0.06250000   0.68750000   0.12500000   1.00000000
  0.06250000   0.68750000   0.18750000   1.00000000
  0.06250000   0.68750000   0.25000000   1.00000000
  0.06250000   0.68750000   0.31250000   1.00000000
  0.06250000   0.68750000   0.37500000   1.00000000
  0.06250000   0.68750000   0.43750000   1.00000000
  0.06250000   0.68750000   0.50000000   1.00000000
  0.06250000   0.68750000   0.56250000   1.00000000
  0.06250000   0.68750000   0.62500000   1.00000000
  0.06250000   0.68750000   0.68750000   1.00000000
  0.06250000   0.68750000   0.75000000   1.00000000
  0.06250000   0.68750000   0.81250000   1.00000000
  0.06250000   0.68750000   0.87500000   1.00000000
  0.06250000   0.68750000   0.93750000   1.00000000
  0.06250000   0.75000000   0.00000000   1.00000000
  0.06250000   0.75000000   0.06250000   1.00000000
  0.06250000   0.75000000   0.12500000   1.00000000
  0.06250000   0.75000000   0.18750000   1.00000000
  0.06250000   0.75000000   0.25000000   1.00000000
  0.06250000   0.75000000   0.31250000   1.00000000
  0.06250000   0.75000000   0.37500000   1.00000000
  0.06250000   0.75000000   0.43750000   1.00000000
  0.06250000   0.75000000   0.50000000   1.00000000
  0.06250000   0.75000000   0.56250000   1.00000000
  0.06250000   0.75000000   0.62500000   1.00000000
  0.06250000   0.75000000   0.68750000   1.00000000
  0.06250000   0.75000000   0.75000000   1.00000000
  0.06250000   0.75000000   0.81250000   1.00000000
  0.06250000   0.75000000   0.87500000   1.00000000
  0.06250000   0.75000000   0.93750000   1.00000000
  0.06250000   0.81250000   0.00000000   1.00000000
  0.06250000   0.81250000   0.06250000   1.00000000
  0.06250000   0.81250000   0.12500000   1.00000000
  0.06250000   0.81250000   0.18750000   1.00000000
  0.06250000   0.81250000   0.25000000   1.00000000
  0.06250000   0.81250000   0.31250000   1.00000000
  0.06250000   0.81250000   0.37500000   1.00000000
  0.06250000   0.81250000   0.43750000   1.00000000
  0.06250000   0.81250000   0.50000000   1.00000000
  0.06250000   0.81250000   0.56250000   1.00000000
  0.06250000   0.81250000   0.62500000   1.00000000
  0.06250000   0.81250000   0.68750000   1.00000000
  0.06250000   0.81250000   0.75000000   1.00000000
  0.06250000   0.81250000   0.81250000   1.00000000
  0.06250000   0.81250000   0.87500000   1.00000000
  0.06250000   0.81250000   0.93750000   1.00000000
  0.06250000   0.87500000   0.00000000   1.00000000
  0.06250000   0.87500000   0.06250000   1.00000000
  0.06250000   0.87500000   0.12500000   1.00000000
  0.06250000   0.87500000   0.18750000   1.00000000
  0.06250000   0.87500000   0.25000000   1.00000000
  0.06250000   0.87500000   0.31250000   1.00000000
  0.06250000   0.87500000   0.37500000   1.00000000
  0.06250000   0.87500000   0.43750000   1.00000000
  0.06250000   0.87500000   0.50000000   1.00000000
  0.06250000   0.87500000   0.56250000   1.00000000
  0.06250000   0.87500000   0.62500000   1.00000000
  0.06250000   0.87500000   0.68750000   1.00000000
  0.06250000   0.87500000   0.75000000   1.00000000
  0.06250000   0.87500000   0.81250000   1.00000000
  0.06250000   0.87500000   0.87500000   1.00000000
  0.06250000   0.87500000   0.93750000   1.00000000
  0.06250000   0.93750000   0.00000000   1.00000000
  0.06250000   0.93750000   0.06250000   1.00000000
  0.06250000   0.93750000   0.12500000   1.00000000
  0.06250000   0.93750000   0.18750000   1.00000000
  0.06250000   0.93750000   0.25000000   1.00000000
  0.06250000   0.93750000   0.31250000   1.00000000
  0.06250000   0.93750000   0.37500000   1.00000000
  0.06250000   0.93750000   0.43750000   1.00000000
  0.06250000   0.93750000   0.50000000   1.00000000
  0.06250000   0.93750000   0.56250000   1.00000000
  0.06250000   0.93750000   0.62500000   1.00000000
  0.06250000   0.93750000   0.68750000   1.00000000
  0.06250000   0.93750000   0.75000000   1.00000000
  0.06250000   0.93750000   0.81250000   1.00000000
  0.06250000   0.93750000   0.87500000   1.00000000
  0.06250000   0.93750000   0.93750000   1.00000000
  0.12500000   0.00000000   0.00000000   1.00000000
  0.12500000   0.00000000   0.06250000   1.00000000
  0.12500000   0.00000000   0.12500000   1.00000000
  0.12500000   0.00000000   0.18750000   1.00000000
  0.12500000   0.00000000   0.25000000   1.00000000
  0.12500000   0.00000000   0.31250000   1.00000000
  0.12500000   0.00000000   0.37500000   1.00000000
  0.12500000   0.00000000   0.43750000   1.00000000
  0.12500000   0.00000000   0.50000000   1.00000000
  0.12500000   0.00000000   0.56250000   1.00000000
  0.12500000   0.00000000   0.62500000   1.00000000
  0.12500000   0.00000000   0.68750000   1.00000000
  0.12500000   0.00000000   0.75000000   1.00000000
  0.12500000   0.00000000   0.81250000   1.00000000
  0.12500000   0.00000000   0.87500000   1.00000000
  0.12500000   0.00000000   0.93750000   1.00000000
  0.12500000   0.06250000   0.00000000   1.00000000
  0.12500000   0.06250000   0.06250000   1.00000000
  0.12500000   0.06250000   0.12500000   1.00000000
  0.12500000   0.06250000   0.18750000   1.00000000
  0.12500000   0.06250000   0.25000000   1.00000000
  0.12500000   0.06250000   0.31250000   1.00000000
  0.12500000   0.06250000   0.37500000   1.00000000
  0.12500000   0.06250000   0.43750000   1.00000000
  0.12500000   0.06250000   0.50000000   1.00000000
  0.12500000   0.06250000   0.56250000   1.00000000
  0.12500000   0.06250000   0.62500000   1.00000000
  0.12500000   0.06250000   0.68750000   1.00000000
  0.12500000   0.06250000   0.75000000   1.00000000
  0.12500000   0.06250000   0.81250000   1.00000000
  0.12500000   0.06250000   0.87500000   1.00000000
  0.12500000   0.06250000   0.93750000   1.00000000
  0.12500000   0.12500000   0.00000000   1.00000000
  0.12500000   0.12500000   0.06250000   1.00000000
  0.12500000   0.12500000   0.12500000   1.00000000
  0.12500000   0.12500000   0.18750000   1.00000000