coord.13.02
 0
Gamma point shift
 8 8 8  
 0 0 0

