poscar.py                               
   1.00000000000000     
    14.2473    0.0000    0.0000
     0.0000   14.2473    0.0000
     0.0000    0.0000   14.2473
   C
   510
Direct
  0.9922963738396930  0.1252158111620290  0.1252158111620290
  0.1252158111620290  0.9922963738396930  0.1252158111620290
  0.1252158111620290  0.1252158111620290  0.9922963738396930
  0.0603132372629247  0.1850183129284844  0.1850183129284844
  0.1850183129284844  0.0603132372629247  0.1850183129284844
  0.1850183129284844  0.1850183129284844  0.0603132372629247
  0.2502749849761727  0.9995095511858310  0.9995095511858310
  0.2481093523413591  0.1234959657115127  0.1234959657115127
  0.3748384051912907  0.9996556373905889  0.1247681679730874
  0.3748384051912907  0.1247681679730874  0.9996556373905889
  0.3120762287629333  0.0619121991084199  0.0619121991084199
  0.3112059277232575  0.1865259383110214  0.1865259383110214
  0.4371543118497385  0.0622460346437776  0.1872724920509938
  0.4371543118497385  0.1872724920509938  0.0622460346437776
  0.5000967740344464  0.9999622175248959  0.9999622175248959
  0.4996938489792768  0.1249032075827188  0.1249032075827188
  0.6248890629114143  0.0000675647629080  0.1251941545067723
  0.6248890629114143  0.1251941545067723  0.0000675647629080
  0.5624032259655536  0.0625377824751041  0.0625377824751041
  0.5620769183451486  0.1874846665729564  0.1874846665729564
  0.6870411186457659  0.0626083855507105  0.1878758943402161
  0.6870411186457659  0.1878758943402161  0.0626083855507105
  0.7504237712370667  0.0005878008915801  0.0005878008915801
  0.7495298757449476  0.1252954879007717  0.1252954879007717
  0.8731307995842599  0.9995662939375691  0.1279591148113539
  0.8731307995842599  0.1279591148113539  0.9995662939375691
  0.8122250150238273  0.0629904488141690  0.0629904488141690
  0.8116014776945093  0.1879194373062560  0.1879194373062560
  0.9345408851886461  0.0629337060624309  0.1893692004157401
  0.9345408851886461  0.1893692004157401  0.0629337060624309
  0.9995095511858310  0.2502749849761727  0.9995095511858310
  0.9996556373905889  0.3748384051912907  0.1247681679730874
  0.1234959657115127  0.2481093523413591  0.1234959657115127
  0.1247681679730874  0.3748384051912907  0.9996556373905889
  0.0619121991084199  0.3120762287629333  0.0619121991084199
  0.0622460346437776  0.4371543118497385  0.1872724920509938
  0.1865259383110214  0.3112059277232575  0.1865259383110214
  0.1872724920509938  0.4371543118497385  0.0622460346437776
  0.2493060901560398  0.2493060901560398  0.9992081589379467
  0.2494199406491617  0.3742461815682532  0.1245418082903385
  0.3742461815682532  0.2494199406491617  0.1245418082903385
  0.3747422135454173  0.3747422135454173  0.9997603218032580
  0.3118665838096462  0.3118665838096462  0.0619662767832310
  0.3121044770599752  0.4369226213862163  0.1872235973796492
  0.4369226213862163  0.3121044770599752  0.1872235973796492
  0.4372738623353456  0.4372738623353456  0.0623785656373315
  0.4997725022290425  0.2499871783213479  0.9998818005402867
  0.4996010915061717  0.3748197143601502  0.1249038502795159
  0.6245557295312949  0.2501427677896189  0.1250514631228725
  0.6245796981769658  0.3753966363493149  0.9999525141492356
  0.5621555404765530  0.3125732310757030  0.0624436860623163
  0.5621837316800722  0.4374222752875099  0.1874769898317012
  0.6869971030181148  0.3127377428931908  0.1875864047350788
  0.6871033636506851  0.4379203018230342  0.0625474858507644
  0.7489321799796116  0.2511288594312120  0.9999316230207640
  0.7493189410783287  0.3756265150108717  0.1250433437140188
  0.8732732011623270  0.2515519094421919  0.1250720962463276
  0.8746241056597839  0.3754588813542341  0.9998916144492895
  0.8113711405687880  0.3135678200203884  0.0625683769792360
  0.8121867911027323  0.4377189886004800  0.1875824358951448
  0.9368052185377209  0.3126683074099432  0.1873966451552107
  0.9373058454932277  0.4376109370885857  0.0624324352370920
  0.9999622175248959  0.5000967740344464  0.9999622175248959
  0.0000675647629080  0.6248890629114143  0.1251941545067723
  0.1249032075827188  0.4996938489792768  0.1249032075827188
  0.1251941545067723  0.6248890629114143  0.0000675647629080
  0.0625377824751041  0.5624032259655536  0.0625377824751041
  0.0626083855507105  0.6870411186457659  0.1878758943402161
  0.1874846665729564  0.5620769183451486  0.1874846665729564
  0.1878758943402161  0.6870411186457659  0.0626083855507105
  0.2499871783213479  0.4997725022290425  0.9998818005402867
  0.2501427677896189  0.6245557295312949  0.1250514631228725
  0.3748197143601502  0.4996010915061717  0.1249038502795159
  0.3753966363493149  0.6245796981769658  0.9999525141492356
  0.3125732310757030  0.5621555404765530  0.0624436860623163
  0.3127377428931908  0.6869971030181148  0.1875864047350788
  0.4374222752875099  0.5621837316800722  0.1874769898317012
  0.4379203018230342  0.6871033636506851  0.0625474858507644
  0.4999677711967934  0.4999677711967934  0.9999503580635007
  0.5001086293311587  0.6247595982280671  0.1250528455635589
  0.6247595982280671  0.5001086293311587  0.1250528455635589
  0.6252261376646544  0.6252261376646544  0.0001214343626685
  0.5625322288032066  0.5625322288032066  0.0625496419364993
  0.5625205353304921  0.6873530369309861  0.1876170673463307
  0.6873530369309861  0.5625205353304921  0.1876170673463307
  0.6877577864545827  0.6877577864545827  0.0627396781967420
  0.7499267689242970  0.5003444595234470  0.0000563139376837
  0.7499752636010157  0.6250484783715251  0.1252200187222030
  0.8748803435631061  0.5000994532469534  0.1250607874084295
  0.8752275079490062  0.6253456881502615  0.0002539653562224
  0.8125128216786521  0.5627274977709575  0.0626181994597133
  0.8124091120342101  0.6873321279342122  0.1878163533568156
  0.9374392125915705  0.5624005467530466  0.1876196564368939
  0.9377318320269126  0.6876615948087093  0.0628443626094111
  0.0005878008915801  0.7504237712370667  0.0005878008915801
  0.9995662939375691  0.8731307995842599  0.1279591148113539
  0.1252954879007717  0.7495298757449476  0.1252954879007717
  0.1279591148113539  0.8731307995842599  0.9995662939375691
  0.0629904488141690  0.8122250150238273  0.0629904488141690
  0.0629337060624309  0.9345408851886461  0.1893692004157401
  0.1879194373062560  0.8116014776945093  0.1879194373062560
  0.1893692004157401  0.9345408851886461  0.0629337060624309
  0.2511288594312120  0.7489321799796116  0.9999316230207640
  0.2515519094421919  0.8732732011623270  0.1250720962463276
  0.3756265150108717  0.7493189410783287  0.1250433437140188
  0.3754588813542341  0.8746241056597839  0.9998916144492895
  0.3135678200203884  0.8113711405687880  0.0625683769792360
  0.3126683074099432  0.9368052185377209  0.1873966451552107
  0.4377189886004800  0.8121867911027323  0.1875824358951448
  0.4376109370885857  0.9373058454932277  0.0624324352370920
  0.5003444595234470  0.7499267689242970  0.0000563139376837
  0.5000994532469534  0.8748803435631061  0.1250607874084295
  0.6250484783715251  0.7499752636010157  0.1252200187222030
  0.6253456881502615  0.8752275079490062  0.0002539653562224
  0.5627274977709575  0.8125128216786521  0.0626181994597133
  0.5624005467530466  0.9374392125915705  0.1876196564368939
  0.6873321279342122  0.8124091120342101  0.1878163533568156
  0.6876615948087093  0.9377318320269126  0.0628443626094111
  0.7506334161903538  0.7506334161903538  0.0005337232167690
  0.7498316925900568  0.8751033548447893  0.1256947814622791
  0.8751033548447893  0.7498316925900568  0.1256947814622791
  0.8774816870715156  0.8774816870715156  0.0021867627370753
  0.8131939098439602  0.8131939098439602  0.0632918410620533
  0.8109480905578081  0.9374279037536724  0.1892267988376730
  0.9374279037536724  0.8109480905578081  0.1892267988376730
  0.9372841888379710  0.9372841888379710  0.0702036261603070
  0.9995095511858310  0.9995095511858310  0.2502749849761727
  0.9996556373905889  0.1247681679730874  0.3748384051912907
  0.1247681679730874  0.9996556373905889  0.3748384051912907
  0.1234959657115127  0.1234959657115127  0.2481093523413591
  0.0619121991084199  0.0619121991084199  0.3120762287629333
  0.0622460346437776  0.1872724920509938  0.4371543118497385
  0.1872724920509938  0.0622460346437776  0.4371543118497385
  0.1865259383110214  0.1865259383110214  0.3112059277232575
  0.2493060901560398  0.9992081589379467  0.2493060901560398
  0.2494199406491617  0.1245418082903385  0.3742461815682532
  0.3747422135454173  0.9997603218032580  0.3747422135454173
  0.3742461815682532  0.1245418082903385  0.2494199406491617
  0.3118665838096462  0.0619662767832310  0.3118665838096462
  0.3121044770599752  0.1872235973796492  0.4369226213862163
  0.4372738623353456  0.0623785656373315  0.4372738623353456
  0.4369226213862163  0.1872235973796492  0.3121044770599752
  0.4997725022290425  0.9998818005402867  0.2499871783213479
  0.4996010915061717  0.1249038502795159  0.3748197143601502
  0.6245796981769658  0.9999525141492356  0.3753966363493149
  0.6245557295312949  0.1250514631228725  0.2501427677896189
  0.5621555404765530  0.0624436860623163  0.3125732310757030
  0.5621837316800722  0.1874769898317012  0.4374222752875099
  0.6871033636506851  0.0625474858507644  0.4379203018230342
  0.6869971030181148  0.1875864047350788  0.3127377428931908
  0.7489321799796116  0.9999316230207640  0.2511288594312120
  0.7493189410783287  0.1250433437140188  0.3756265150108717
  0.8746241056597839  0.9998916144492895  0.3754588813542341
  0.8732732011623270  0.1250720962463276  0.2515519094421919
  0.8113711405687880  0.0625683769792360  0.3135678200203884
  0.8121867911027323  0.1875824358951448  0.4377189886004800
  0.9373058454932277  0.0624324352370920  0.4376109370885857
  0.9368052185377209  0.1873966451552107  0.3126683074099432
  0.9992081589379467  0.2493060901560398  0.2493060901560398
  0.9997603218032580  0.3747422135454173  0.3747422135454173
  0.1245418082903385  0.2494199406491617  0.3742461815682532
  0.1245418082903385  0.3742461815682532  0.2494199406491617
  0.0619662767832310  0.3118665838096462  0.3118665838096462
  0.0623785656373315  0.4372738623353456  0.4372738623353456
  0.1872235973796492  0.3121044770599752  0.4369226213862163
  0.1872235973796492  0.4369226213862163  0.3121044770599752
  0.2491504000005023  0.2491504000005023  0.2491504000005023
  0.2497131676078297  0.3745620153373608  0.3745620153373608
  0.3745620153373608  0.2497131676078297  0.3745620153373608
  0.3745620153373608  0.3745620153373608  0.2497131676078297
  0.3119315628779020  0.3119315628779020  0.3119315628779020
  0.3123373779011018  0.4372143977195861  0.4372143977195861
  0.4372143977195861  0.3123373779011018  0.4372143977195861
  0.4372143977195861  0.4372143977195861  0.3123373779011018
  0.4994956244664124  0.2498262317297488  0.2498262317297488
  0.4997227698817284  0.3748766291175016  0.3748766291175016
  0.6245995110599054  0.2500340528006291  0.3750375686275405
  0.6245995110599054  0.3750375686275405  0.2500340528006291
  0.5620893888672924  0.3124258299455249  0.3124258299455249
  0.5623403702971146  0.4374467041126380  0.4374467041126380
  0.6872477178003962  0.3125547798053745  0.4375190928588708
  0.6872477178003962  0.4375190928588708  0.3125547798053745
  0.7493701362645737  0.2502303352819055  0.2502303352819055
  0.7497511673377488  0.3750833693056990  0.3750833693056990
  0.8746836466431844  0.2500908879657899  0.3751678720657878
  0.8746836466431844  0.3751678720657878  0.2500908879657899
  0.8121639120863691  0.3126056846357059  0.3126056846357059
  0.8123537429970042  0.4375716978082309  0.4375716978082309
  0.9372799812777970  0.3125247363989843  0.4374515216284749
  0.9372799812777970  0.4374515216284749  0.3125247363989843
  0.9998818005402867  0.4997725022290425  0.2499871783213479
  0.9999525141492356  0.6245796981769658  0.3753966363493149
  0.1249038502795159  0.4996010915061717  0.3748197143601502
  0.1250514631228725  0.6245557295312949  0.2501427677896189
  0.0624436860623163  0.5621555404765530  0.3125732310757030
  0.0625474858507644  0.6871033636506851  0.4379203018230342
  0.1874769898317012  0.5621837316800722  0.4374222752875099
  0.1875864047350788  0.6869971030181148  0.3127377428931908
  0.2498262317297488  0.4994956244664124  0.2498262317297488
  0.2500340528006291  0.6245995110599054  0.3750375686275405
  0.3748766291175016  0.4997227698817284  0.3748766291175016
  0.3750375686275405  0.6245995110599054  0.2500340528006291
  0.3124258299455249  0.5620893888672924  0.3124258299455249
  0.3125547798053745  0.6872477178003962  0.4375190928588708
  0.4374467041126380  0.5623403702971146  0.4374467041126380
  0.4375190928588708  0.6872477178003962  0.3125547798053745
  0.4997978942833541  0.4997978942833541  0.2499813033376626
  0.4999819843286133  0.6248643733483306  0.3750633164823185
  0.6248643733483306  0.4999819843286133  0.3750633164823185
  0.6249283021917691  0.6249283021917691  0.2501462570029958
  0.5623803272361414  0.5623803272361414  0.3125411643022744
  0.5625180156713867  0.6874366835176815  0.4376356266516694
  0.6874366835176815  0.5625180156713867  0.4376356266516694
  0.6874166306943010  0.6874166306943010  0.3127488326622512
  0.7497969614070286  0.5000680732346083  0.2501381393081559
  0.7499452201946255  0.6249809071411292  0.3752522821995967
  0.8748829326536693  0.4999794646695079  0.3751469630690139
  0.8749175641048552  0.6247810113995200  0.2503132088972677
  0.8123618606918441  0.5624319267653917  0.3127030385929714
  0.8124659471993709  0.6874624313724595  0.4379004889400946
  0.9374471544364411  0.5623913706688413  0.4377404017719329
  0.9374566562859812  0.6868734849891283  0.3131810589216713
  0.9999316230207640  0.7489321799796116  0.2511288594312120
  0.9998916144492895  0.8746241056597839  0.3754588813542341
  0.1250433437140188  0.7493189410783287  0.3756265150108717
  0.1250720962463276  0.8732732011623270  0.2515519094421919
  0.0625683769792360  0.8113711405687880  0.3135678200203884
  0.0624324352370920  0.9373058454932277  0.4376109370885857
  0.1875824358951448  0.8121867911027323  0.4377189886004800
  0.1873966451552107  0.9368052185377209  0.3126683074099432
  0.2502303352819055  0.7493701362645737  0.2502303352819055
  0.2500908879657899  0.8746836466431844  0.3751678720657878
  0.3750833693056990  0.7497511673377488  0.3750833693056990
  0.3751678720657878  0.8746836466431844  0.2500908879657899
  0.3126056846357059  0.8121639120863691  0.3126056846357059
  0.3125247363989843  0.9372799812777970  0.4374515216284749
  0.4375716978082309  0.8123537429970042  0.4375716978082309
  0.4374515216284749  0.9372799812777970  0.3125247363989843
  0.5000680732346083  0.7497969614070286  0.2501381393081559
  0.4999794646695079  0.8748829326536693  0.3751469630690139
  0.6249809071411292  0.7499452201946255  0.3752522821995967
  0.6247810113995200  0.8749175641048552  0.2503132088972677
  0.5624319267653917  0.8123618606918441  0.3127030385929714
  0.5623913706688413  0.9374471544364411  0.4377404017719329
  0.6874624313724595  0.8124659471993709  0.4379004889400946
  0.6868734849891283  0.9374566562859812  0.3131810589216713
  0.7498943153642941  0.7498943153642941  0.2503360879136309
  0.7497622571068092  0.8749135952649212  0.3755028969818852
  0.8749135952649212  0.7497622571068092  0.3755028969818852
  0.8745805626937440  0.8745805626937440  0.2508985223054978
  0.8122696647180945  0.8122696647180945  0.3131298637354263
  0.8123572322103811  0.9374485368771275  0.4379442704687051
  0.9374485368771275  0.8123572322103811  0.4379442704687051
  0.9372045120992283  0.9372045120992283  0.3129701242550524
  0.9999622175248959  0.9999622175248959  0.5000967740344464
  0.0000675647629080  0.1251941545067723  0.6248890629114143
  0.1251941545067723  0.0000675647629080  0.6248890629114143
  0.1249032075827188  0.1249032075827188  0.4996938489792768
  0.0625377824751041  0.0625377824751041  0.5624032259655536
  0.0626083855507105  0.1878758943402161  0.6870411186457659
  0.1878758943402161  0.0626083855507105  0.6870411186457659
  0.1874846665729564  0.1874846665729564  0.5620769183451486
  0.2499871783213479  0.9998818005402867  0.4997725022290425
  0.2501427677896189  0.1250514631228725  0.6245557295312949
  0.3753966363493149  0.9999525141492356  0.6245796981769658
  0.3748197143601502  0.1249038502795159  0.4996010915061717
  0.3125732310757030  0.0624436860623163  0.5621555404765530
  0.3127377428931908  0.1875864047350788  0.6869971030181148
  0.4379203018230342  0.0625474858507644  0.6871033636506851
  0.4374222752875099  0.1874769898317012  0.5621837316800722
  0.4999677711967934  0.9999503580635007  0.4999677711967934
  0.5001086293311587  0.1250528455635589  0.6247595982280671
  0.6252261376646544  0.0001214343626685  0.6252261376646544
  0.6247595982280671  0.1250528455635589  0.5001086293311587
  0.5625322288032066  0.0625496419364993  0.5625322288032066
  0.5625205353304921  0.1876170673463307  0.6873530369309861
  0.6877577864545827  0.0627396781967420  0.6877577864545827
  0.6873530369309861  0.1876170673463307  0.5625205353304921
  0.7499267689242970  0.0000563139376837  0.5003444595234470
  0.7499752636010157  0.1252200187222030  0.6250484783715251
  0.8752275079490062  0.0002539653562224  0.6253456881502615
  0.8748803435631061  0.1250607874084295  0.5000994532469534
  0.8125128216786521  0.0626181994597133  0.5627274977709575
  0.8124091120342101  0.1878163533568156  0.6873321279342122
  0.9377318320269126  0.0628443626094111  0.6876615948087093
  0.9374392125915705  0.1876196564368939  0.5624005467530466
  0.9998818005402867  0.2499871783213479  0.4997725022290425
  0.9999525141492356  0.3753966363493149  0.6245796981769658
  0.1250514631228725  0.2501427677896189  0.6245557295312949
  0.1249038502795159  0.3748197143601502  0.4996010915061717
  0.0624436860623163  0.3125732310757030  0.5621555404765530
  0.0625474858507644  0.4379203018230342  0.6871033636506851
  0.1875864047350788  0.3127377428931908  0.6869971030181148
  0.1874769898317012  0.4374222752875099  0.5621837316800722
  0.2498262317297488  0.2498262317297488  0.4994956244664124
  0.2500340528006291  0.3750375686275405  0.6245995110599054
  0.3750375686275405  0.2500340528006291  0.6245995110599054
  0.3748766291175016  0.3748766291175016  0.4997227698817284
  0.3124258299455249  0.3124258299455249  0.5620893888672924
  0.3125547798053745  0.4375190928588708  0.6872477178003962
  0.4375190928588708  0.3125547798053745  0.6872477178003962
  0.4374467041126380  0.4374467041126380  0.5623403702971146
  0.4997978942833541  0.2499813033376626  0.4997978942833541
  0.4999819843286133  0.3750633164823185  0.6248643733483306
  0.6249283021917691  0.2501462570029958  0.6249283021917691
  0.6248643733483306  0.3750633164823185  0.4999819843286133
  0.5623803272361414  0.3125411643022744  0.5623803272361414
  0.5625180156713867  0.4376356266516694  0.6874366835176815
  0.6874166306943010  0.3127488326622512  0.6874166306943010
  0.6874366835176815  0.4376356266516694  0.5625180156713867
  0.7497969614070286  0.2501381393081559  0.5000680732346083
  0.7499452201946255  0.3752522821995967  0.6249809071411292
  0.8749175641048552  0.2503132088972677  0.6247810113995200
  0.8748829326536693  0.3751469630690139  0.4999794646695079
  0.8123618606918441  0.3127030385929714  0.5624319267653917
  0.8124659471993709  0.4379004889400946  0.6874624313724595
  0.9374566562859812  0.3131810589216713  0.6868734849891283
  0.9374471544364411  0.4377404017719329  0.5623913706688413
  0.9999503580635007  0.4999677711967934  0.4999677711967934
  0.0001214343626685  0.6252261376646544  0.6252261376646544
  0.1250528455635589  0.5001086293311587  0.6247595982280671
  0.1250528455635589  0.6247595982280671  0.5001086293311587
  0.0625496419364993  0.5625322288032066  0.5625322288032066
  0.0627396781967420  0.6877577864545827  0.6877577864545827
  0.1876170673463307  0.5625205353304921  0.6873530369309861
  0.1876170673463307  0.6873530369309861  0.5625205353304921
  0.2499813033376626  0.4997978942833541  0.4997978942833541
  0.2501462570029958  0.6249283021917691  0.6249283021917691
  0.3750633164823185  0.4999819843286133  0.6248643733483306
  0.3750633164823185  0.6248643733483306  0.4999819843286133
  0.3125411643022744  0.5623803272361414  0.5623803272361414
  0.3127488326622512  0.6874166306943010  0.6874166306943010
  0.4376356266516694  0.5625180156713867  0.6874366835176815
  0.4376356266516694  0.6874366835176815  0.5625180156713867
  0.4999571462127292  0.4999571462127292  0.4999571462127292
  0.5001596297028854  0.6250532958873620  0.6250532958873620
  0.6250532958873620  0.5001596297028854  0.6250532958873620
  0.6250532958873620  0.6250532958873620  0.5001596297028854
  0.5625428537872779  0.5625428537872779  0.5625428537872779
  0.5627772301182716  0.6876233708824984  0.6876233708824984
  0.6876233708824984  0.5627772301182716  0.6876233708824984
  0.6876233708824984  0.6876233708824984  0.5627772301182716
  0.7499588356977256  0.5001196727638586  0.5001196727638586
  0.7501626220988982  0.6252856022804139  0.6252856022804139
  0.8750230101682988  0.5003162683199278  0.6250777247124972
  0.8750230101682988  0.6250777247124972  0.5003162683199278
  0.8125186966623374  0.5627021057166459  0.5627021057166459
  0.8127868323921703  0.6879379846626392  0.6879379846626392
  0.9375961497204841  0.5628989084938283  0.6876802856398498
  0.9375961497204841  0.6876802856398498  0.5628989084938283
  0.0000563139376837  0.7499267689242970  0.5003444595234470
  0.0002539653562224  0.8752275079490062  0.6253456881502615
  0.1252200187222030  0.7499752636010157  0.6250484783715251
  0.1250607874084295  0.8748803435631061  0.5000994532469534
  0.0626181994597133  0.8125128216786521  0.5627274977709575
  0.0628443626094111  0.9377318320269126  0.6876615948087093
  0.1878163533568156  0.8124091120342101  0.6873321279342122
  0.1876196564368939  0.9374392125915705  0.5624005467530466
  0.2501381393081559  0.7497969614070286  0.5000680732346083
  0.2503132088972677  0.8749175641048552  0.6247810113995200
  0.3752522821995967  0.7499452201946255  0.6249809071411292
  0.3751469630690139  0.8748829326536693  0.4999794646695079
  0.3127030385929714  0.8123618606918441  0.5624319267653917
  0.3131810589216713  0.9374566562859812  0.6868734849891283
  0.4379004889400946  0.8124659471993709  0.6874624313724595
  0.4377404017719329  0.9374471544364411  0.5623913706688413
  0.5001196727638586  0.7499588356977256  0.5001196727638586
  0.5003162683199278  0.8750230101682988  0.6250777247124972
  0.6252856022804139  0.7501626220988982  0.6252856022804139
  0.6250777247124972  0.8750230101682988  0.5003162683199278
  0.5627021057166459  0.8125186966623374  0.5627021057166459
  0.5628989084938283  0.9375961497204841  0.6876802856398498
  0.6879379846626392  0.8127868323921703  0.6879379846626392
  0.6876802856398498  0.9375961497204841  0.5628989084938283
  0.7500741700544751  0.7500741700544751  0.5004106111327076
  0.7503955229400248  0.8752764026203508  0.6255773786137837
  0.8752764026203508  0.7503955229400248  0.6255773786137837
  0.8750153334270436  0.8750153334270436  0.5004230816548514
  0.8126737682702512  0.8126737682702512  0.5630043755335876
  0.8130800593508454  0.9379581917096615  0.6882538184317468
  0.9379581917096615  0.8130800593508454  0.6882538184317468
  0.9375967924172812  0.9375967924172812  0.5628061510207232
  0.0005878008915801  0.0005878008915801  0.7504237712370667
  0.9995662939375691  0.1279591148113539  0.8731307995842599
  0.1279591148113539  0.9995662939375691  0.8731307995842599
  0.1252954879007717  0.1252954879007717  0.7495298757449476
  0.0629904488141690  0.0629904488141690  0.8122250150238273
  0.0629337060624309  0.1893692004157401  0.9345408851886461
  0.1893692004157401  0.0629337060624309  0.9345408851886461
  0.1879194373062560  0.1879194373062560  0.8116014776945093
  0.2511288594312120  0.9999316230207640  0.7489321799796116
  0.2515519094421919  0.1250720962463276  0.8732732011623270
  0.3754588813542341  0.9998916144492895  0.8746241056597839
  0.3756265150108717  0.1250433437140188  0.7493189410783287
  0.3135678200203884  0.0625683769792360  0.8113711405687880
  0.3126683074099432  0.1873966451552107  0.9368052185377209
  0.4376109370885857  0.0624324352370920  0.9373058454932277
  0.4377189886004800  0.1875824358951448  0.8121867911027323
  0.5003444595234470  0.0000563139376837  0.7499267689242970
  0.5000994532469534  0.1250607874084295  0.8748803435631061
  0.6253456881502615  0.0002539653562224  0.8752275079490062
  0.6250484783715251  0.1252200187222030  0.7499752636010157
  0.5627274977709575  0.0626181994597133  0.8125128216786521
  0.5624005467530466  0.1876196564368939  0.9374392125915705
  0.6876615948087093  0.0628443626094111  0.9377318320269126
  0.6873321279342122  0.1878163533568156  0.8124091120342101
  0.7506334161903538  0.0005337232167690  0.7506334161903538
  0.7498316925900568  0.1256947814622791  0.8751033548447893
  0.8774816870715156  0.0021867627370753  0.8774816870715156
  0.8751033548447893  0.1256947814622791  0.7498316925900568
  0.8131939098439602  0.0632918410620533  0.8131939098439602
  0.8109480905578081  0.1892267988376730  0.9374279037536724
  0.9372841888379710  0.0702036261603070  0.9372841888379710
  0.9374279037536724  0.1892267988376730  0.8109480905578081
  0.9999316230207640  0.2511288594312120  0.7489321799796116
  0.9998916144492895  0.3754588813542341  0.8746241056597839
  0.1250720962463276  0.2515519094421919  0.8732732011623270
  0.1250433437140188  0.3756265150108717  0.7493189410783287
  0.0625683769792360  0.3135678200203884  0.8113711405687880
  0.0624324352370920  0.4376109370885857  0.9373058454932277
  0.1873966451552107  0.3126683074099432  0.9368052185377209
  0.1875824358951448  0.4377189886004800  0.8121867911027323
  0.2502303352819055  0.2502303352819055  0.7493701362645737
  0.2500908879657899  0.3751678720657878  0.8746836466431844
  0.3751678720657878  0.2500908879657899  0.8746836466431844
  0.3750833693056990  0.3750833693056990  0.7497511673377488
  0.3126056846357059  0.3126056846357059  0.8121639120863691
  0.3125247363989843  0.4374515216284749  0.9372799812777970
  0.4374515216284749  0.3125247363989843  0.9372799812777970
  0.4375716978082309  0.4375716978082309  0.8123537429970042
  0.5000680732346083  0.2501381393081559  0.7497969614070286
  0.4999794646695079  0.3751469630690139  0.8748829326536693
  0.6247810113995200  0.2503132088972677  0.8749175641048552
  0.6249809071411292  0.3752522821995967  0.7499452201946255
  0.5624319267653917  0.3127030385929714  0.8123618606918441
  0.5623913706688413  0.4377404017719329  0.9374471544364411
  0.6868734849891283  0.3131810589216713  0.9374566562859812
  0.6874624313724595  0.4379004889400946  0.8124659471993709
  0.7498943153642941  0.2503360879136309  0.7498943153642941
  0.7497622571068092  0.3755028969818852  0.8749135952649212
  0.8745805626937440  0.2508985223054978  0.8745805626937440
  0.8749135952649212  0.3755028969818852  0.7497622571068092
  0.8122696647180945  0.3131298637354263  0.8122696647180945
  0.8123572322103811  0.4379442704687051  0.9374485368771275
  0.9372045120992283  0.3129701242550524  0.9372045120992283
  0.9374485368771275  0.4379442704687051  0.8123572322103811
  0.0000563139376837  0.5003444595234470  0.7499267689242970
  0.0002539653562224  0.6253456881502615  0.8752275079490062
  0.1250607874084295  0.5000994532469534  0.8748803435631061
  0.1252200187222030  0.6250484783715251  0.7499752636010157
  0.0626181994597133  0.5627274977709575  0.8125128216786521
  0.0628443626094111  0.6876615948087093  0.9377318320269126
  0.1876196564368939  0.5624005467530466  0.9374392125915705
  0.1878163533568156  0.6873321279342122  0.8124091120342101
  0.2501381393081559  0.5000680732346083  0.7497969614070286
  0.2503132088972677  0.6247810113995200  0.8749175641048552
  0.3751469630690139  0.4999794646695079  0.8748829326536693
  0.3752522821995967  0.6249809071411292  0.7499452201946255
  0.3127030385929714  0.5624319267653917  0.8123618606918441
  0.3131810589216713  0.6868734849891283  0.9374566562859812
  0.4377404017719329  0.5623913706688413  0.9374471544364411
  0.4379004889400946  0.6874624313724595  0.8124659471993709
  0.5001196727638586  0.5001196727638586  0.7499588356977256
  0.5003162683199278  0.6250777247124972  0.8750230101682988
  0.6250777247124972  0.5003162683199278  0.8750230101682988
  0.6252856022804139  0.6252856022804139  0.7501626220988982
  0.5627021057166459  0.5627021057166459  0.8125186966623374
  0.5628989084938283  0.6876802856398498  0.9375961497204841
  0.6876802856398498  0.5628989084938283  0.9375961497204841
  0.6879379846626392  0.6879379846626392  0.8127868323921703
  0.7500741700544751  0.5004106111327076  0.7500741700544751
  0.7503955229400248  0.6255773786137837  0.8752764026203508
  0.8750153334270436  0.5004230816548514  0.8750153334270436
  0.8752764026203508  0.6255773786137837  0.7503955229400248
  0.8126737682702512  0.5630043755335876  0.8126737682702512
  0.8130800593508454  0.6882538184317468  0.9379581917096615
  0.9375967924172812  0.5628061510207232  0.9375967924172812
  0.9379581917096615  0.6882538184317468  0.8130800593508454
  0.0005337232167690  0.7506334161903538  0.7506334161903538
  0.0021867627370753  0.8774816870715156  0.8774816870715156
  0.1256947814622791  0.7498316925900568  0.8751033548447893
  0.1256947814622791  0.8751033548447893  0.7498316925900568
  0.0632918410620533  0.8131939098439602  0.8131939098439602
  0.0702036261603070  0.9372841888379710  0.9372841888379710
  0.1892267988376730  0.8109480905578081  0.9374279037536724
  0.1892267988376730  0.9374279037536724  0.8109480905578081
  0.2503360879136309  0.7498943153642941  0.7498943153642941
  0.2508985223054978  0.8745805626937440  0.8745805626937440