poscar.py                               
   1.00000000000000     
     8.7534720000000004  -15.1614582466315522    0.0000000000000000
     8.7534720000000004   15.1614582466315522    0.0000000000000000
     0.0000000000000000    0.0000000000000000   16.0000000000000000
   N    B    C H
    47    45  6 1
C
 1.250496 -0.7219742023649449 0.0
 2.500992 -2.887896809026595 0.0
 3.751488 -5.053819415688245 0.0
 5.001984 -7.219742022349895 0.0
 6.25248 -9.385664629011545 0.0
 7.5029759999999985 -11.551587235673194 0.0
 8.753472 -13.717509842334845 0.0
 2.5009919999999997 1.443948404296705 0.0
 3.751488 -0.7219742023649451 0.0
 5.001984 -2.8878968090265955 0.0
 6.252479999999999 -5.053819415688245 0.0
 7.502975999999999 -7.219742022349895 0.0
 8.753471999999999 -9.385664629011544 0.0
 10.003968 -11.551587235673196 0.0
 3.751488 3.609871010958355 0.0
 5.001984 1.4439484042967048 0.0
 6.25248 -0.7219742023649456 0.0
 7.502976 -2.8878968090265955 0.0
 8.753472 -5.053819415688245 0.0
 10.003967999999999 -7.2197420223498945 0.0
 11.254464 -9.385664629011545 0.0
 5.001983999999999 5.775793617620006 0.0
 6.25248 3.6098710109583556 0.0
 7.502976 1.4439484042967052 0.0
 10.003968 -2.8878968090265946 0.0
 11.254463999999999 -5.053819415688244 0.0
 12.50496 -7.2197420223498945 0.0
 6.252479999999999 7.941716224281657 0.0
 7.502976 5.775793617620007 0.0
 8.753472 3.609871010958356 0.0
 12.504959999999999 -2.887896809026593 0.0
 13.755455999999999 -5.053819415688244 0.0
 7.502975999999999 10.107638830943305 0.0
 8.753472 7.941716224281656 0.0
 10.003968 5.775793617620005 0.0
 11.254463999999999 3.609871010958355 0.0
 12.50496 1.4439484042967052 0.0
 13.755455999999999 -0.7219742023649438 0.0
 15.005952 -2.8878968090265946 0.0
 8.753472 12.273561437604956 0.0
 10.003968 10.107638830943307 0.0
 11.254464 7.941716224281656 0.0
 12.50496 5.775793617620006 0.0
 13.755455999999999 3.609871010958356 0.0
 15.005951999999999 1.443948404296707 0.0
 16.256448 -0.7219742023649438 0.0
 1.250496 0.7219742023649449 0.0
 2.5009919999999997 -1.443948404296705 0.0
 3.751488 -3.609871010958355 0.0
 5.001983999999999 -5.775793617620006 0.0
 6.252479999999999 -7.941716224281657 0.0
 7.502975999999999 -10.107638830943305 0.0
 8.753472 -12.273561437604956 0.0
 2.500992 2.887896809026595 0.0
 3.751488 0.7219742023649451 0.0
 5.001984 -1.4439484042967048 0.0
 6.25248 -3.6098710109583556 0.0
 7.502976 -5.775793617620007 0.0
 8.753472 -7.941716224281656 0.0
 10.003968 -10.107638830943307 0.0
 3.751488 5.053819415688245 0.0
 5.001984 2.8878968090265955 0.0
 6.25248 0.7219742023649456 0.0
 7.502976 -1.4439484042967052 0.0
 8.753472 -3.609871010958356 0.0
 10.003968 -5.775793617620005 0.0
 11.254464 -7.941716224281656 0.0
 5.001984 7.219742022349895 0.0
 6.252479999999999 5.053819415688245 0.0
 7.502976 2.8878968090265955 0.0
 11.254463999999999 -3.609871010958355 0.0
 12.50496 -5.775793617620006 0.0
 6.25248 9.385664629011545 0.0
 7.502975999999999 7.219742022349895 0.0
 8.753472 5.053819415688245 0.0
 10.003968 2.8878968090265946 0.0
 12.50496 -1.4439484042967052 0.0
 13.755455999999999 -3.609871010958356 0.0
 7.5029759999999985 11.551587235673194 0.0
 8.753471999999999 9.385664629011544 0.0
 10.003967999999999 7.2197420223498945 0.0
 11.254463999999999 5.053819415688244 0.0
 12.504959999999999 2.887896809026593 0.0
 13.755455999999999 0.7219742023649438 0.0
 15.005951999999999 -1.443948404296707 0.0
 8.753472 13.717509842334845 0.0
 10.003968 11.551587235673196 0.0
 11.254464 9.385664629011545 0.0
 12.50496 7.2197420223498945 0.0
 13.755455999999999 5.053819415688244 0.0
 15.005952 2.8878968090265946 0.0
 16.256448 0.7219742023649438 0.0
 8.753471999999999 0.7219742023649447 0.0
 10.003968 -1.4439484042967061 0.0
 8.753471999999999 -0.7219742023649447 0.0
 11.254463999999999 -0.7219742023649438 0.0
 10.003968 1.4439484042967061 0.0
 11.254463999999999 0.7219742023649438 0.0
 10.00396799999 0.3609871009658807 0.3
