poscar.py
1.0
14.2473 0.0 0.0
0.0 14.2473 0.0
0.0 0.0 14.2473
C Si
6 1
Direct
0.992296373839693 0.125215811162029 0.125215811162029
0.125215811162029 0.992296373839693 0.125215811162029
0.125215811162029 0.125215811162029 0.992296373839693
0.937284188837971 0.937284188837971 0.070203626160307
0.937284188837971 0.070203626160307 0.937284188837971
0.070203626160307 0.937284188837971 0.937284188837971
0.031 0.031 0.031
