poscar.py
1.0
39.26647182049349 0.0 0.0
0.0 30.0 0.0
0.0 0.0 25.56
C B H
14 2 10
Direct
0.09395467 0.5 0.19444444
0.03131822 0.5 0.02777778
0.03131822 0.5 0.19444444
0.12527289 0.5 0.05555556
0.06263644 0.5 0.05555556
0.06263644 0.5 0.22222222
0.0 0.5 0.05555556
0.12527289 0.5 0.11111111
0.0 0.5 0.11111111
0.09395467 0.5 0.13888889
0.03131822 0.5 0.13888889
0.06263644 0.5 0.9444444400000002
0.09395467 0.5 0.97222222
0.03131822 0.5 0.97222222
0.09395467 0.5 0.02777778
0.06263644 0.5 0.11111111
0.11777416181211085 0.5 0.2155712027364715
0.00749872818788915 0.5 0.2155712027364715
0.007498728187889139 0.5 0.9510954572635285
0.1490923814067921 0.5 0.03442879618503316
0.06263644 0.5 0.2644757411267606
-0.023819491812110825 0.5 0.03442879726352843
0.06263644 0.5 0.9021909188732395
0.1490923814067921 0.5 0.13223787381496685
0.11777416140679209 0.5 0.9510954561850332
-0.023819491812110825 0.5 0.13223787273647156
