poscar.py
1.0
39.26647182049349 0.0 0.0
0.0 30.0 0.0
0.0 0.0 25.56
C H
48 48
Direct
0.09395467 0.5 0.02777778
0.09395467 0.5 0.19444444
0.09395467 0.5 0.36111111
0.90604533 0.5 0.02777778
0.90604533 0.5 0.19444444
0.90604533 0.5 0.36111111
0.12527289 0.5 0.05555556
0.12527289 0.5 0.22222222
0.12527289 0.5 0.38888889
0.87472711 0.5 0.05555556
0.87472711 0.5 0.22222222
0.87472711 0.5 0.38888889
0.12527289 0.5 0.11111111
0.12527289 0.5 0.27777778
0.12527289 0.5 0.44444444
0.87472711 0.5 0.11111111
0.87472711 0.5 0.27777778
0.87472711 0.5 0.44444444
0.09395467 0.5 0.13888889
0.09395467 0.5 0.30555556
0.09395467 0.5 0.4722222200000001
0.90604533 0.5 0.13888889
0.90604533 0.5 0.30555556
0.90604533 0.5 0.4722222200000001
0.06263644 0.5 0.61111111
0.06263644 0.5 0.77777778
0.06263644 0.5 0.9444444400000002
0.9373635600000001 0.5 0.61111111
0.9373635600000001 0.5 0.77777778
0.9373635600000001 0.5 0.9444444400000002
0.09395467 0.5 0.63888889
0.09395467 0.5 0.80555556
0.09395467 0.5 0.97222222
0.90604533 0.5 0.63888889
0.90604533 0.5 0.80555556
0.90604533 0.5 0.97222222
0.09395467 0.5 0.52777778
0.09395467 0.5 0.69444444
0.09395467 0.5 0.8611111100000001
0.90604533 0.5 0.52777778
0.90604533 0.5 0.69444444
0.90604533 0.5 0.8611111100000001
0.06263644 0.5 0.55555556
0.06263644 0.5 0.72222222
0.06263644 0.5 0.8888888900000002
0.9373635600000001 0.5 0.55555556
0.9373635600000001 0.5 0.72222222
0.9373635600000001 0.5 0.8888888900000002
0.85068707 0.5 0.03423318
0.85068707 0.5 0.20089984
0.85068707 0.5 0.36756651
0.14931293 0.5 0.03423318
0.14931293 0.5 0.20089984
0.14931293 0.5 0.36756651
0.85068707 0.5 0.13243349
0.85068707 0.5 0.29910016
0.85068707 0.5 0.46576682
0.14931293 0.5 0.13243349
0.14931293 0.5 0.29910016
0.14931293 0.5 0.46576682
0.88200529 0.5 0.61756651
0.88200529 0.5 0.78423318
0.88200529 0.5 0.95089984
0.11799471 0.5 0.61756651
0.11799471 0.5 0.78423318
0.11799471 0.5 0.95089984
0.88200529 0.5 0.54910016
0.88200529 0.5 0.71576682
0.88200529 0.5 0.88243349
0.11799471 0.5 0.54910016
0.11799471 0.5 0.71576682
0.11799471 0.5 0.88243349
0.07013517628648094 0.5 0.048904537677094614
0.07013517628648094 0.5 0.21557119767709462
0.07013517628648094 0.5 0.3822378676770946
0.929864823713519 0.5 0.048904537677094614
0.929864823713519 0.5 0.21557119767709462
0.9298648237135192 0.5 0.3822378676770946
0.07013517628648094 0.5 0.11776213232290537
0.07013517628648096 0.5 0.2844288023229054
0.07013517628648097 0.5 0.4510954623229054
0.929864823713519 0.5 0.11776213232290539
0.929864823713519 0.5 0.2844288023229054
0.929864823713519 0.5 0.4510954623229054
0.038816948187889166 0.5 0.6322378727364715
0.038816948187889166 0.5 0.7989045427364715
0.03881694818788914 0.5 0.9655712027364717
0.9611830518121108 0.5 0.6322378727364715
0.9611830518121108 0.5 0.7989045427364715
0.961183051812111 0.5 0.9655712027364717
0.038816948187889146 0.5 0.5344287972635284
0.03881694818788914 0.5 0.7010954572635285
0.038816948187889166 0.5 0.8677621272635286
0.961183051812111 0.5 0.5344287972635285
0.961183051812111 0.5 0.7010954572635286
0.9611830518121108 0.5 0.8677621272635286
