poscar.py
1.0
14.2473 0.0 0.0
0.0 14.2473 0.0
0.0 0.0 14.2473
C
36
Direct
0.992296373839693 0.125215811162029 0.125215811162029
0.125215811162029 0.992296373839693 0.125215811162029
0.125215811162029 0.125215811162029 0.992296373839693
0.0603132372629247 0.1850183129284844 0.1850183129284844
0.1850183129284844 0.0603132372629247 0.1850183129284844
0.1850183129284844 0.1850183129284844 0.0603132372629247
0.2502749849761727 0.999509551185831 0.999509551185831
0.2481093523413591 0.1234959657115127 0.1234959657115127
0.8731307995842599 0.9995662939375691 0.1279591148113539
0.8731307995842599 0.1279591148113539 0.9995662939375691
0.8122250150238273 0.062990448814169 0.062990448814169
0.9345408851886461 0.0629337060624309 0.1893692004157401
0.9345408851886461 0.1893692004157401 0.0629337060624309
0.999509551185831 0.2502749849761727 0.999509551185831
0.1234959657115127 0.2481093523413591 0.1234959657115127
0.9995662939375691 0.8731307995842599 0.1279591148113539
0.1279591148113539 0.8731307995842599 0.9995662939375691
0.062990448814169 0.8122250150238273 0.062990448814169
0.0629337060624309 0.9345408851886461 0.1893692004157401
0.1893692004157401 0.9345408851886461 0.0629337060624309
0.8774816870715156 0.8774816870715156 0.0021867627370753
0.937284188837971 0.937284188837971 0.070203626160307
0.999509551185831 0.999509551185831 0.2502749849761727
0.1234959657115127 0.1234959657115127 0.2481093523413591
0.9995662939375691 0.1279591148113539 0.8731307995842599
0.1279591148113539 0.9995662939375691 0.8731307995842599
0.062990448814169 0.062990448814169 0.8122250150238273
0.0629337060624309 0.1893692004157401 0.9345408851886461
0.1893692004157401 0.0629337060624309 0.9345408851886461
0.8774816870715156 0.0021867627370753 0.8774816870715156
0.937284188837971 0.070203626160307 0.937284188837971
0.0021867627370753 0.8774816870715156 0.8774816870715156
0.070203626160307 0.937284188837971 0.937284188837971
0.8143906476586409 0.9390040342884873 0.9390040342884873
0.9390040342884873 0.8143906476586409 0.9390040342884873
0.9390040342884873 0.9390040342884873 0.8143906476586409
