poscar.py
1.0
39.26647182049349 0.0 0.0
0.0 30.0 0.0
0.0 0.0 25.56
C H B
18 3 2
Direct
0.09395467 0.5 0.19444444
0.03131822 0.5 0.02777778
0.03131822 0.5 0.19444444
0.12527289 0.5 0.05555556
0.12527289 0.5 0.22222222
0.06263644 0.5 0.05555556
0.06263644 0.5 0.22222222
0.0 0.5 0.05555556
0.0 0.5 0.22222222
0.12527289 0.5 0.11111111
0.0 0.5 0.11111111
0.09395467 0.5 0.13888889
0.03131822 0.5 0.13888889
0.96868178 0.5 0.13888889
0.06263644 0.5 0.94444444
0.09395467 0.5 0.97222222
0.03131822 0.5 0.97222222
0.06263644 0.5 0.88888889
0.14931293 0.5 0.03423318
0.14931293 0.5 0.13243349
0.11799471 0.5 0.95089984
0.09395467 0.5 0.02777778
0.06263644 0.5 0.11111111
