poscar.py
1.0
14.2473 0.0 0.0
0.0 14.2473 0.0
0.0 0.0 14.2473
C Si H
36 1 42
Direct
0.992296373839693 0.125215811162029 0.125215811162029
0.125215811162029 0.992296373839693 0.125215811162029
0.125215811162029 0.125215811162029 0.992296373839693
0.0603132372629247 0.1850183129284844 0.1850183129284844
0.1850183129284844 0.0603132372629247 0.1850183129284844
0.1850183129284844 0.1850183129284844 0.0603132372629247
0.2502749849761727 0.999509551185831 0.999509551185831
0.2481093523413591 0.1234959657115127 0.1234959657115127
0.8731307995842599 0.9995662939375691 0.1279591148113539
0.8731307995842599 0.1279591148113539 0.9995662939375691
0.8122250150238273 0.062990448814169 0.062990448814169
0.9345408851886461 0.0629337060624309 0.1893692004157401
0.9345408851886461 0.1893692004157401 0.0629337060624309
0.999509551185831 0.2502749849761727 0.999509551185831
0.1234959657115127 0.2481093523413591 0.1234959657115127
0.9995662939375691 0.8731307995842599 0.1279591148113539
0.1279591148113539 0.8731307995842599 0.9995662939375691
0.062990448814169 0.8122250150238273 0.062990448814169
0.0629337060624309 0.9345408851886461 0.1893692004157401
0.1893692004157401 0.9345408851886461 0.0629337060624309
0.8774816870715156 0.8774816870715156 0.0021867627370753
0.937284188837971 0.937284188837971 0.070203626160307
0.999509551185831 0.999509551185831 0.2502749849761727
0.1234959657115127 0.1234959657115127 0.2481093523413591
0.9995662939375691 0.1279591148113539 0.8731307995842599
0.1279591148113539 0.9995662939375691 0.8731307995842599
0.062990448814169 0.062990448814169 0.8122250150238273
0.0629337060624309 0.1893692004157401 0.9345408851886461
0.1893692004157401 0.0629337060624309 0.9345408851886461
0.8774816870715156 0.0021867627370753 0.8774816870715156
0.937284188837971 0.070203626160307 0.937284188837971
0.0021867627370753 0.8774816870715156 0.8774816870715156
0.070203626160307 0.937284188837971 0.937284188837971
0.8143906476586409 0.9390040342884873 0.9390040342884873
0.9390040342884873 0.8143906476586409 0.9390040342884873
0.9390040342884873 0.9390040342884873 0.8143906476586409
0.031 0.031 0.031
0.01802847524105865 0.2295055050817218 0.2295055050817218
0.2295055050817218 0.01802847524105865 0.2295055050817218
0.2295055050817218 0.2295055050817218 0.01802847524105865
0.1068929299979297 0.2333597773025895 0.8911976341943466
0.2333597773025895 0.1068929299979297 0.8911976341943466
0.17130236580565325 0.9556070700020703 0.8291402226974105
0.08029494676325268 0.08029494676325268 0.29298212308563265
0.16724591574219372 0.16724591574219372 0.29190553225730387
0.29298212308563265 0.08029494676325268 0.08029494676325268
0.29190553225730387 0.16724591574219372 0.16724591574219372
0.2937578006884491 1.0434155095988764 1.0434155095988764
0.2942224598406261 0.9558355252456786 0.9558355252456786
0.1066644747543214 0.1066644747543214 0.7682775401593739
0.019084490401123387 0.019084490401123387 0.7687421993115507
0.8329944949182783 0.044471524758941325 0.8329944949182783
0.8291402226974105 0.17130236580565325 0.9556070700020703
0.8291402226974105 0.9556070700020703 0.17130236580565325
0.7687421993115507 0.019084490401123394 0.019084490401123394
0.7682775401593739 0.1066644747543214 0.1066644747543214
0.8911976341943466 0.1068929299979297 0.2333597773025895
0.8911976341943466 0.2333597773025895 0.1068929299979297
1.0434155095988764 0.2937578006884491 1.0434155095988764
0.9558355252456786 0.2942224598406261 0.9558355252456786
0.08029494676325268 0.29298212308563265 0.08029494676325268
0.16724591574219372 0.29190553225730387 0.16724591574219372
0.044471524758941325 0.8329944949182783 0.8329944949182783
0.9556070700020703 0.8291402226974105 0.17130236580565325
0.17130236580565325 0.8291402226974105 0.9556070700020703
0.1066644747543214 0.7682775401593739 0.1066644747543214
0.019084490401123394 0.7687421993115507 0.019084490401123394
0.1068929299979297 0.8911976341943466 0.2333597773025895
0.2333597773025895 0.8911976341943466 0.1068929299979297
0.8329944949182783 0.8329944949182783 0.044471524758941325
0.7695178769143672 0.9822050532367473 0.9822050532367473
0.7705944677426961 0.8952540842578064 0.8952540842578064
0.8952540842578064 0.7705944677426961 0.8952540842578064
0.9822050532367473 0.7695178769143672 0.9822050532367473
0.8952540842578064 0.8952540842578064 0.7705944677426961
0.9822050532367473 0.9822050532367473 0.7695178769143672
1.0434155095988764 1.0434155095988764 0.2937578006884491
0.9558355252456786 0.9558355252456786 0.2942224598406261
0.9556070700020703 0.17130236580565325 0.8291402226974105
