poscar.py
1.0
17.835 0.0 0.0
0.0 17.835 0.0
0.0 0.0 17.835
C N
6 1
Direct
0.0 0.1 0.1
0.1 0.0 0.1
0.1 0.1 0.0
0.95 0.95 0.05
0.95 0.05 0.95
0.05 0.95 0.95
0.0 0.0 0.0
