poscar.py
1.0
8.7400216172 -15.1381615003 0.0
8.7400216172 15.1381615003 0.0
0.0 0.0 16.0
B N C H
7 7 1 10
Direct
0.3291926059680534 0.3788820172669745 0.2000000000000028
0.4748706067650872 0.39387435795251957 0.2000000000000028
0.4748706067640568 0.5095676773821082 0.2000000000000028
0.6182219028961028 0.38473967487646366 0.2000000000000028
0.618221902899748 0.6620536565928248 0.2000000000000028
0.7645021900539604 0.5260352343539836 0.2000000000000028
0.7645021900586498 0.6670383842778519 0.2000000000000028
0.379589879504465 0.3349569358180773 0.2000000000000028
0.3795898795091475 0.47320437226355944 0.2000000000000028
0.523385266959707 0.3432828431628465 0.2000000000000028
0.523385266960055 0.6086738523710905 0.2000000000000028
0.6686107722044525 0.48062812516040765 0.2000000000000028
0.6686107722001111 0.6165540756172305 0.2000000000000028
0.8123263288067193 0.6204488786906452 0.2000000000000028
0.6241788398966222 0.5263751342354297 0.2000000000000028
0.34474214116728424 0.2636203504634734 0.2000000000000028
0.3447421411691778 0.5096932192780314 0.2000000000000028
0.7989848381137115 0.4891880674265905 0.2000000000000028
0.7989848381155663 0.7383681992651369 0.2000000000000028
0.48955433068526283 0.27197109362641897 0.2000000000000028
0.4895543306886798 0.646154665635841 0.2000000000000028
0.2578497285663444 0.3432105785690133 0.2000000000000028
0.8836692062084283 0.6561203173923505 0.2000000000000028
0.6535837299738173 0.34875951773798175 0.2000000000000028
0.6535837299768641 0.7333956408092255 0.2000000000000028
