poscar.py
1.0
8.7400216172 -15.1381615003 0.0
8.7400216172 15.1381615003 0.0
0.0 0.0 16.0
B N C
7 7 1
Direct
0.3291926059680534 0.3788820172669745 0.2000000000000028
0.4748706067650872 0.3938743579525195 0.2000000000000028
0.4748706067640569 0.5095676773821083 0.2000000000000028
0.6182219028961029 0.3847396748764638 0.2000000000000028
0.618221902899748 0.6620536565928248 0.2000000000000028
0.7645021900539604 0.5260352343539836 0.2000000000000028
0.7645021900586499 0.667038384277852 0.2000000000000028
0.379589879504465 0.3349569358180773 0.2000000000000028
0.3795898795091475 0.4732043722635595 0.2000000000000028
0.523385266959707 0.3432828431628465 0.2000000000000028
0.5233852669600552 0.6086738523710906 0.2000000000000028
0.6686107722044525 0.4806281251604076 0.2000000000000028
0.6686107722001111 0.6165540756172305 0.2000000000000028
0.8123263288067193 0.6204488786906452 0.2000000000000028
0.6241788398966222 0.5263751342354297 0.2000000000000028
