poscar.py
1.0
8.7400216172 -15.1381615003 0.0
8.7400216172 15.1381615003 0.0
0.0 0.0 16.0
B N C H
4 4 1 8
Direct
0.4748706067650872 0.39387435795251957 0.2000000000000028
0.4748706067640568 0.5095676773821082 0.2000000000000028
0.6182219028961028 0.38473967487646366 0.2000000000000028
0.618221902899748 0.6620536565928248 0.2000000000000028
0.523385266959707 0.3432828431628465 0.2000000000000028
0.523385266960055 0.6086738523710905 0.2000000000000028
0.6686107722044525 0.48062812516040765 0.2000000000000028
0.6686107722001111 0.6165540756172305 0.2000000000000028
0.6241788398966222 0.5263751342354297 0.2000000000000028
0.48955433068526283 0.27197109362641897 0.2000000000000028
0.4895543306886798 0.646154665635841 0.2000000000000028
0.7399203388804957 0.5143950810905759 0.2000000000000028
0.7399203388761709 0.6540966863630658 0.2000000000000028
0.4041847949146717 0.35016535262224785 0.2000000000000028
0.40418479491433223 0.48259087086627184 0.2000000000000028
0.6535837299738173 0.34875951773798175 0.2000000000000028
0.6535837299768641 0.7333956408092255 0.2000000000000028
