poscar.py
1.0
39.26647182049349 0.0 0.0
0.0 30.0 0.0
0.0 0.0 25.56
C H
24 24
Direct
0.12527289 0.5 0.05555556
0.12527289 0.5 0.22222222
0.12527289 0.5 0.38888889
0.87472711 0.5 0.05555556
0.87472711 0.5 0.22222222
0.87472711 0.5 0.38888889
0.12527289 0.5 0.11111111
0.12527289 0.5 0.27777778
0.12527289 0.5 0.44444444
0.87472711 0.5 0.11111111
0.87472711 0.5 0.27777778
0.87472711 0.5 0.44444444
0.09395467 0.5 0.63888889
0.09395467 0.5 0.80555556
0.09395467 0.5 0.97222222
0.90604533 0.5 0.63888889
0.90604533 0.5 0.80555556
0.90604533 0.5 0.97222222
0.09395467 0.5 0.52777778
0.09395467 0.5 0.69444444
0.09395467 0.5 0.86111111
0.90604533 0.5 0.52777778
0.90604533 0.5 0.69444444
0.90604533 0.5 0.86111111
0.85068707 0.5 0.03423318
0.85068707 0.5 0.20089984
0.85068707 0.5 0.36756651
0.14931293 0.5 0.03423318
0.14931293 0.5 0.20089984
0.14931293 0.5 0.36756651
0.85068707 0.5 0.13243349
0.85068707 0.5 0.29910016
0.85068707 0.5 0.46576682
0.14931293 0.5 0.13243349
0.14931293 0.5 0.29910016
0.14931293 0.5 0.46576682
0.88200529 0.5 0.61756651
0.88200529 0.5 0.78423318
0.88200529 0.5 0.95089984
0.11799471 0.5 0.61756651
0.11799471 0.5 0.78423318
0.11799471 0.5 0.95089984
0.88200529 0.5 0.54910016
0.88200529 0.5 0.71576682
0.88200529 0.5 0.88243349
0.11799471 0.5 0.54910016
0.11799471 0.5 0.71576682
0.11799471 0.5 0.88243349
