poscar.py
1.0
8.7400216172 -15.1381615003 0.0
8.7400216172 15.1381615003 0.0
0.0 0.0 16.0
B N C
2 2 1
Direct
0.4748706067650872 0.3938743579525195 0.2000000000000028
0.4748706067640569 0.5095676773821083 0.2000000000000028
0.6686107722044525 0.4806281251604076 0.2000000000000028
0.6686107722001111 0.6165540756172305 0.2000000000000028
0.6241788398966222 0.5263751342354297 0.2000000000000028
