&CONTROL
  calculation = 'bands'
  outdir = '.'
  prefix = 'LiNbO3'
  pseudo_dir = '/scratch/lllang/LiNbO3/pseudos'
  verbosity = 'low'
/
&SYSTEM
  degauss =   0.005
  ecutrho =   600
  ecutwfc =   100
  ibrav = 0
  A =    5.59240
  nat = 10
  ntyp = 3
  nosym = .TRUE.,
  occupations='smearing',
  smearing='marzari-vanderbilt'
/
&ELECTRONS
  conv_thr =   1.0000000000d-08
  mixing_beta =   7.0000000000d-01
/
CELL_PARAMETERS {alat}
  1.000000000000000   0.000000000000000   0.000000000000000 
  0.563873895725760   0.825860902161529   0.000000000000000 
  0.563873895725760   0.297774267798811   0.770309493097376 
ATOMIC_SPECIES
  Nb   92.90600  Nb.pbe-spn-kjpaw_psl.1.0.0.UPF
   O   15.99900  O.pbe-n-kjpaw_psl.1.0.0.UPF
  Li    6.96750  Li.pbe-s-kjpaw_psl.1.0.0.UPF
ATOMIC_POSITIONS {crystal}
Nb   0.999231000000000   0.999231000000000   0.999231000000000 
Nb   0.499231000000000   0.499231000000000   0.499231000000000 
 O   0.639684000000000   0.890368000000000   0.279949000000000 
 O   0.890368000000000   0.279949000000000   0.639684000000000 
 O   0.279949000000000   0.639684000000000   0.890368000000000 
 O   0.390368000000000   0.139684000000000   0.779949000000000 
 O   0.139684000000000   0.779949000000000   0.390368000000000 
 O   0.779949000000000   0.390368000000000   0.139684000000000 
Li   0.717168000000000   0.717168000000000   0.717168000000000 
Li   0.217168000000000   0.217168000000000   0.217168000000000 

K_POINTS {crystal_b}
10
    0.0000000000     0.0000000000     0.0000000000 30 !G
    0.5000000000     0.5000000000     0.5000000000 30 !T
    0.7650097432     0.2349902568     0.5000000000 1  !H2
    0.5000000000    -0.2349902568     0.2349902568 30 !H0
    0.5000000000     0.0000000000     0.0000000000 30 !L
    0.0000000000     0.0000000000     0.0000000000 30 !G
    0.3674951284    -0.3674951284     0.0000000000 1  !S0
    0.6325048716     0.0000000000     0.3674951284 30 !S2
    0.5000000000     0.0000000000     0.5000000000 30 !F
    0.0000000000     0.0000000000     0.0000000000 30 !G
   
