#************************************************************************************
#*                  Generated by cif2cell 1.2.10 2020-08-26 13:14                   *
#*  T. Bjorkman, Comp. Phys. Commun. 182, 1183-1186 (2011). Please cite generously. *
#*                                                                                  *
#*                                   LiNbO3   ()                                    *
#*             Failed to get author information, No journal information             *
#************************************************************************************
&CONTROL
  calculation = 'scf'
  outdir = '.'
  prefix = 'LiNbO3'
  pseudo_dir = '/scratch/lllang/LiNbO3/pseudos'
  verbosity = 'low'
/
&SYSTEM
  degauss =   0.005
  ecutrho =   600
  ecutwfc =   100
  ibrav = 0
  A =    5.59240
  nat = 10
  ntyp = 3
  nosym = .TRUE.,
  occupations='smearing',
  smearing='marzari-vanderbilt'
/
&ELECTRONS
  conv_thr =   1.0000000000d-08
  mixing_beta =   7.0000000000d-01
/
CELL_PARAMETERS {alat}
  1.000000000000000   0.000000000000000   0.000000000000000 
  0.563873895725760   0.825860902161529   0.000000000000000 
  0.563873895725760   0.297774267798811   0.770309493097376 
ATOMIC_SPECIES
  Nb   92.90600  Nb.pbe-spn-kjpaw_psl.1.0.0.UPF
   O   15.99900  O.pbe-n-kjpaw_psl.1.0.0.UPF
  Li    6.96750  Li.pbe-s-kjpaw_psl.1.0.0.UPF
ATOMIC_POSITIONS {crystal}
Nb   0.999231000000000   0.999231000000000   0.999231000000000 
Nb   0.499231000000000   0.499231000000000   0.499231000000000 
 O   0.639684000000000   0.890368000000000   0.279949000000000 
 O   0.890368000000000   0.279949000000000   0.639684000000000 
 O   0.279949000000000   0.639684000000000   0.890368000000000 
 O   0.390368000000000   0.139684000000000   0.779949000000000 
 O   0.139684000000000   0.779949000000000   0.390368000000000 
 O   0.779949000000000   0.390368000000000   0.139684000000000 
Li   0.717168000000000   0.717168000000000   0.717168000000000 
Li   0.217168000000000   0.217168000000000   0.217168000000000 

K_POINTS {automatic}
 9 9 9 0 0 0

   
