&CONTROL
  calculation = 'bands'
  outdir = '.'
  prefix = 'LiF'
  pseudo_dir = '/scratch/lllang/LiF/pseudos'
  verbosity = 'low'

/
&SYSTEM
  degauss =   5.0000000000d-03
  ecutrho =   600
  ecutwfc =   100
  ibrav = 0
  nat = 2
  ntyp = 2
  nspin=2,
  nosym = .TRUE.
  starting_magnetization(1)= 0.7,
  degauss=0.005d0,
  occupations='smearing', smearing='marzari-vanderbilt'
/
&ELECTRONS
  conv_thr =   1.0000000000d-08
  mixing_beta =   7.0000000000d-01
/

CELL_PARAMETERS {angstrom}
      2.5005783699       0.0000000000       1.4437095950
      0.8335261233       2.3575678963       1.4437095950
      0.0000000000       0.0000000000       2.8874191900
ATOMIC_SPECIES
F      18.9984032 F.pbe-n-kjpaw_psl.1.0.0.UPF
Li     6.941 Li.pbe-s-kjpaw_psl.1.0.0.UPF
ATOMIC_POSITIONS {angstrom}
Li           0.0000000000       0.0000000000       0.0000000000 
F            1.6670522466       1.1787839482       2.8874191900 

K_POINTS {crystal}
269
        0.0000000000       0.0000000000       0.0000000000       1.0000000000 !G
        0.0083333333       0.0000000000       0.0083333333       1.0000000000
        0.0166666667       0.0000000000       0.0166666667       1.0000000000
        0.0250000000       0.0000000000       0.0250000000       1.0000000000
        0.0333333333       0.0000000000       0.0333333333       1.0000000000
        0.0416666667       0.0000000000       0.0416666667       1.0000000000
        0.0500000000       0.0000000000       0.0500000000       1.0000000000
        0.0583333333       0.0000000000       0.0583333333       1.0000000000
        0.0666666667       0.0000000000       0.0666666667       1.0000000000
        0.0750000000       0.0000000000       0.0750000000       1.0000000000
        0.0833333333       0.0000000000       0.0833333333       1.0000000000
        0.0916666667       0.0000000000       0.0916666667       1.0000000000
        0.1000000000       0.0000000000       0.1000000000       1.0000000000
        0.1083333333       0.0000000000       0.1083333333       1.0000000000
        0.1166666667       0.0000000000       0.1166666667       1.0000000000
        0.1250000000       0.0000000000       0.1250000000       1.0000000000
        0.1333333333       0.0000000000       0.1333333333       1.0000000000
        0.1416666667       0.0000000000       0.1416666667       1.0000000000
        0.1500000000       0.0000000000       0.1500000000       1.0000000000
        0.1583333333       0.0000000000       0.1583333333       1.0000000000
        0.1666666667       0.0000000000       0.1666666667       1.0000000000
        0.1750000000       0.0000000000       0.1750000000       1.0000000000
        0.1833333333       0.0000000000       0.1833333333       1.0000000000
        0.1916666667       0.0000000000       0.1916666667       1.0000000000
        0.2000000000       0.0000000000       0.2000000000       1.0000000000
        0.2083333333       0.0000000000       0.2083333333       1.0000000000
        0.2166666667       0.0000000000       0.2166666667       1.0000000000
        0.2250000000       0.0000000000       0.2250000000       1.0000000000
        0.2333333333       0.0000000000       0.2333333333       1.0000000000
        0.2416666667       0.0000000000       0.2416666667       1.0000000000
        0.2500000000       0.0000000000       0.2500000000       1.0000000000
        0.2583333333       0.0000000000       0.2583333333       1.0000000000
        0.2666666667       0.0000000000       0.2666666667       1.0000000000
        0.2750000000       0.0000000000       0.2750000000       1.0000000000
        0.2833333333       0.0000000000       0.2833333333       1.0000000000
        0.2916666667       0.0000000000       0.2916666667       1.0000000000
        0.3000000000       0.0000000000       0.3000000000       1.0000000000
        0.3083333333       0.0000000000       0.3083333333       1.0000000000
        0.3166666667       0.0000000000       0.3166666667       1.0000000000
        0.3250000000       0.0000000000       0.3250000000       1.0000000000
        0.3333333333       0.0000000000       0.3333333333       1.0000000000
        0.3416666667       0.0000000000       0.3416666667       1.0000000000
        0.3500000000       0.0000000000       0.3500000000       1.0000000000
        0.3583333333       0.0000000000       0.3583333333       1.0000000000
        0.3666666667       0.0000000000       0.3666666667       1.0000000000
        0.3750000000       0.0000000000       0.3750000000       1.0000000000
        0.3833333333       0.0000000000       0.3833333333       1.0000000000
        0.3916666667       0.0000000000       0.3916666667       1.0000000000
        0.4000000000       0.0000000000       0.4000000000       1.0000000000
        0.4083333333       0.0000000000       0.4083333333       1.0000000000
        0.4166666667       0.0000000000       0.4166666667       1.0000000000
        0.4250000000       0.0000000000       0.4250000000       1.0000000000
        0.4333333333       0.0000000000       0.4333333333       1.0000000000
        0.4416666667       0.0000000000       0.4416666667       1.0000000000
        0.4500000000       0.0000000000       0.4500000000       1.0000000000
        0.4583333333       0.0000000000       0.4583333333       1.0000000000
        0.4666666667       0.0000000000       0.4666666667       1.0000000000
        0.4750000000       0.0000000000       0.4750000000       1.0000000000
        0.4833333333       0.0000000000       0.4833333333       1.0000000000
        0.4916666667       0.0000000000       0.4916666667       1.0000000000
        0.5000000000       0.0000000000       0.5000000000       1.0000000000 !X
        0.5062500000       0.0125000000       0.5062500000       1.0000000000
        0.5125000000       0.0250000000       0.5125000000       1.0000000000
        0.5187500000       0.0375000000       0.5187500000       1.0000000000
        0.5250000000       0.0500000000       0.5250000000       1.0000000000
        0.5312500000       0.0625000000       0.5312500000       1.0000000000
        0.5375000000       0.0750000000       0.5375000000       1.0000000000
        0.5437500000       0.0875000000       0.5437500000       1.0000000000
        0.5500000000       0.1000000000       0.5500000000       1.0000000000
        0.5562500000       0.1125000000       0.5562500000       1.0000000000
        0.5625000000       0.1250000000       0.5625000000       1.0000000000
        0.5687500000       0.1375000000       0.5687500000       1.0000000000
        0.5750000000       0.1500000000       0.5750000000       1.0000000000
        0.5812500000       0.1625000000       0.5812500000       1.0000000000
        0.5875000000       0.1750000000       0.5875000000       1.0000000000
        0.5937500000       0.1875000000       0.5937500000       1.0000000000
        0.6000000000       0.2000000000       0.6000000000       1.0000000000
        0.6062500000       0.2125000000       0.6062500000       1.0000000000
        0.6125000000       0.2250000000       0.6125000000       1.0000000000
        0.6187500000       0.2375000000       0.6187500000       1.0000000000
        0.6250000000       0.2500000000       0.6250000000       1.0000000000 !U
        0.3750000000       0.3750000000       0.7500000000       1.0000000000 !K
        0.3691406250       0.3691406250       0.7382812500       1.0000000000
        0.3632812500       0.3632812500       0.7265625000       1.0000000000
        0.3574218750       0.3574218750       0.7148437500       1.0000000000
        0.3515625000       0.3515625000       0.7031250000       1.0000000000
        0.3457031250       0.3457031250       0.6914062500       1.0000000000
        0.3398437500       0.3398437500       0.6796875000       1.0000000000
        0.3339843750       0.3339843750       0.6679687500       1.0000000000
        0.3281250000       0.3281250000       0.6562500000       1.0000000000
        0.3222656250       0.3222656250       0.6445312500       1.0000000000
        0.3164062500       0.3164062500       0.6328125000       1.0000000000
        0.3105468750       0.3105468750       0.6210937500       1.0000000000
        0.3046875000       0.3046875000       0.6093750000       1.0000000000
        0.2988281250       0.2988281250       0.5976562500       1.0000000000
        0.2929687500       0.2929687500       0.5859375000       1.0000000000
        0.2871093750       0.2871093750       0.5742187500       1.0000000000
        0.2812500000       0.2812500000       0.5625000000       1.0000000000
        0.2753906250       0.2753906250       0.5507812500       1.0000000000
        0.2695312500       0.2695312500       0.5390625000       1.0000000000
        0.2636718750       0.2636718750       0.5273437500       1.0000000000
        0.2578125000       0.2578125000       0.5156250000       1.0000000000
        0.2519531250       0.2519531250       0.5039062500       1.0000000000
        0.2460937500       0.2460937500       0.4921875000       1.0000000000
        0.2402343750       0.2402343750       0.4804687500       1.0000000000
        0.2343750000       0.2343750000       0.4687500000       1.0000000000
        0.2285156250       0.2285156250       0.4570312500       1.0000000000
        0.2226562500       0.2226562500       0.4453125000       1.0000000000
        0.2167968750       0.2167968750       0.4335937500       1.0000000000
        0.2109375000       0.2109375000       0.4218750000       1.0000000000
        0.2050781250       0.2050781250       0.4101562500       1.0000000000
        0.1992187500       0.1992187500       0.3984375000       1.0000000000
        0.1933593750       0.1933593750       0.3867187500       1.0000000000
        0.1875000000       0.1875000000       0.3750000000       1.0000000000
        0.1816406250       0.1816406250       0.3632812500       1.0000000000
        0.1757812500       0.1757812500       0.3515625000       1.0000000000
        0.1699218750       0.1699218750       0.3398437500       1.0000000000
        0.1640625000       0.1640625000       0.3281250000       1.0000000000
        0.1582031250       0.1582031250       0.3164062500       1.0000000000
        0.1523437500       0.1523437500       0.3046875000       1.0000000000
        0.1464843750       0.1464843750       0.2929687500       1.0000000000
        0.1406250000       0.1406250000       0.2812500000       1.0000000000
        0.1347656250       0.1347656250       0.2695312500       1.0000000000
        0.1289062500       0.1289062500       0.2578125000       1.0000000000
        0.1230468750       0.1230468750       0.2460937500       1.0000000000
        0.1171875000       0.1171875000       0.2343750000       1.0000000000
        0.1113281250       0.1113281250       0.2226562500       1.0000000000
        0.1054687500       0.1054687500       0.2109375000       1.0000000000
        0.0996093750       0.0996093750       0.1992187500       1.0000000000
        0.0937500000       0.0937500000       0.1875000000       1.0000000000
        0.0878906250       0.0878906250       0.1757812500       1.0000000000
        0.0820312500       0.0820312500       0.1640625000       1.0000000000
        0.0761718750       0.0761718750       0.1523437500       1.0000000000
        0.0703125000       0.0703125000       0.1406250000       1.0000000000
        0.0644531250       0.0644531250       0.1289062500       1.0000000000
        0.0585937500       0.0585937500       0.1171875000       1.0000000000
        0.0527343750       0.0527343750       0.1054687500       1.0000000000
        0.0468750000       0.0468750000       0.0937500000       1.0000000000
        0.0410156250       0.0410156250       0.0820312500       1.0000000000
        0.0351562500       0.0351562500       0.0703125000       1.0000000000
        0.0292968750       0.0292968750       0.0585937500       1.0000000000
        0.0234375000       0.0234375000       0.0468750000       1.0000000000
        0.0175781250       0.0175781250       0.0351562500       1.0000000000
        0.0117187500       0.0117187500       0.0234375000       1.0000000000
        0.0058593750       0.0058593750       0.0117187500       1.0000000000
        0.0000000000       0.0000000000       0.0000000000       1.0000000000 !G
        0.0096153846       0.0096153846       0.0096153846       1.0000000000
        0.0192307692       0.0192307692       0.0192307692       1.0000000000
        0.0288461538       0.0288461538       0.0288461538       1.0000000000
        0.0384615385       0.0384615385       0.0384615385       1.0000000000
        0.0480769231       0.0480769231       0.0480769231       1.0000000000
        0.0576923077       0.0576923077       0.0576923077       1.0000000000
        0.0673076923       0.0673076923       0.0673076923       1.0000000000
        0.0769230769       0.0769230769       0.0769230769       1.0000000000
        0.0865384615       0.0865384615       0.0865384615       1.0000000000
        0.0961538462       0.0961538462       0.0961538462       1.0000000000
        0.1057692308       0.1057692308       0.1057692308       1.0000000000
        0.1153846154       0.1153846154       0.1153846154       1.0000000000
        0.1250000000       0.1250000000       0.1250000000       1.0000000000
        0.1346153846       0.1346153846       0.1346153846       1.0000000000
        0.1442307692       0.1442307692       0.1442307692       1.0000000000
        0.1538461538       0.1538461538       0.1538461538       1.0000000000
        0.1634615385       0.1634615385       0.1634615385       1.0000000000
        0.1730769231       0.1730769231       0.1730769231       1.0000000000
        0.1826923077       0.1826923077       0.1826923077       1.0000000000
        0.1923076923       0.1923076923       0.1923076923       1.0000000000
        0.2019230769       0.2019230769       0.2019230769       1.0000000000
        0.2115384615       0.2115384615       0.2115384615       1.0000000000
        0.2211538462       0.2211538462       0.2211538462       1.0000000000
        0.2307692308       0.2307692308       0.2307692308       1.0000000000
        0.2403846154       0.2403846154       0.2403846154       1.0000000000
        0.2500000000       0.2500000000       0.2500000000       1.0000000000
        0.2596153846       0.2596153846       0.2596153846       1.0000000000
        0.2692307692       0.2692307692       0.2692307692       1.0000000000
        0.2788461538       0.2788461538       0.2788461538       1.0000000000
        0.2884615385       0.2884615385       0.2884615385       1.0000000000
        0.2980769231       0.2980769231       0.2980769231       1.0000000000
        0.3076923077       0.3076923077       0.3076923077       1.0000000000
        0.3173076923       0.3173076923       0.3173076923       1.0000000000
        0.3269230769       0.3269230769       0.3269230769       1.0000000000
        0.3365384615       0.3365384615       0.3365384615       1.0000000000
        0.3461538462       0.3461538462       0.3461538462       1.0000000000
        0.3557692308       0.3557692308       0.3557692308       1.0000000000
        0.3653846154       0.3653846154       0.3653846154       1.0000000000
        0.3750000000       0.3750000000       0.3750000000       1.0000000000
        0.3846153846       0.3846153846       0.3846153846       1.0000000000
        0.3942307692       0.3942307692       0.3942307692       1.0000000000
        0.4038461538       0.4038461538       0.4038461538       1.0000000000
        0.4134615385       0.4134615385       0.4134615385       1.0000000000
        0.4230769231       0.4230769231       0.4230769231       1.0000000000
        0.4326923077       0.4326923077       0.4326923077       1.0000000000
        0.4423076923       0.4423076923       0.4423076923       1.0000000000
        0.4519230769       0.4519230769       0.4519230769       1.0000000000
        0.4615384615       0.4615384615       0.4615384615       1.0000000000
        0.4711538462       0.4711538462       0.4711538462       1.0000000000
        0.4807692308       0.4807692308       0.4807692308       1.0000000000
        0.4903846154       0.4903846154       0.4903846154       1.0000000000
        0.5000000000       0.5000000000       0.5000000000       1.0000000000 !L
        0.5000000000       0.4940476190       0.5059523810       1.0000000000
        0.5000000000       0.4880952381       0.5119047619       1.0000000000
        0.5000000000       0.4821428571       0.5178571429       1.0000000000
        0.5000000000       0.4761904762       0.5238095238       1.0000000000
        0.5000000000       0.4702380952       0.5297619048       1.0000000000
        0.5000000000       0.4642857143       0.5357142857       1.0000000000
        0.5000000000       0.4583333333       0.5416666667       1.0000000000
        0.5000000000       0.4523809524       0.5476190476       1.0000000000
        0.5000000000       0.4464285714       0.5535714286       1.0000000000
        0.5000000000       0.4404761905       0.5595238095       1.0000000000
        0.5000000000       0.4345238095       0.5654761905       1.0000000000
        0.5000000000       0.4285714286       0.5714285714       1.0000000000
        0.5000000000       0.4226190476       0.5773809524       1.0000000000
        0.5000000000       0.4166666667       0.5833333333       1.0000000000
        0.5000000000       0.4107142857       0.5892857143       1.0000000000
        0.5000000000       0.4047619048       0.5952380952       1.0000000000
        0.5000000000       0.3988095238       0.6011904762       1.0000000000
        0.5000000000       0.3928571429       0.6071428571       1.0000000000
        0.5000000000       0.3869047619       0.6130952381       1.0000000000
        0.5000000000       0.3809523810       0.6190476190       1.0000000000
        0.5000000000       0.3750000000       0.6250000000       1.0000000000
        0.5000000000       0.3690476190       0.6309523810       1.0000000000
        0.5000000000       0.3630952381       0.6369047619       1.0000000000
        0.5000000000       0.3571428571       0.6428571429       1.0000000000
        0.5000000000       0.3511904762       0.6488095238       1.0000000000
        0.5000000000       0.3452380952       0.6547619048       1.0000000000
        0.5000000000       0.3392857143       0.6607142857       1.0000000000
        0.5000000000       0.3333333333       0.6666666667       1.0000000000
        0.5000000000       0.3273809524       0.6726190476       1.0000000000
        0.5000000000       0.3214285714       0.6785714286       1.0000000000
        0.5000000000       0.3154761905       0.6845238095       1.0000000000
        0.5000000000       0.3095238095       0.6904761905       1.0000000000
        0.5000000000       0.3035714286       0.6964285714       1.0000000000
        0.5000000000       0.2976190476       0.7023809524       1.0000000000
        0.5000000000       0.2916666667       0.7083333333       1.0000000000
        0.5000000000       0.2857142857       0.7142857143       1.0000000000
        0.5000000000       0.2797619048       0.7202380952       1.0000000000
        0.5000000000       0.2738095238       0.7261904762       1.0000000000
        0.5000000000       0.2678571429       0.7321428571       1.0000000000
        0.5000000000       0.2619047619       0.7380952381       1.0000000000
        0.5000000000       0.2559523810       0.7440476190       1.0000000000
        0.5000000000       0.2500000000       0.7500000000       1.0000000000 !W
        0.5000000000       0.2413793103       0.7413793103       1.0000000000
        0.5000000000       0.2327586207       0.7327586207       1.0000000000
        0.5000000000       0.2241379310       0.7241379310       1.0000000000
        0.5000000000       0.2155172414       0.7155172414       1.0000000000
        0.5000000000       0.2068965517       0.7068965517       1.0000000000
        0.5000000000       0.1982758621       0.6982758621       1.0000000000
        0.5000000000       0.1896551724       0.6896551724       1.0000000000
        0.5000000000       0.1810344828       0.6810344828       1.0000000000
        0.5000000000       0.1724137931       0.6724137931       1.0000000000
        0.5000000000       0.1637931034       0.6637931034       1.0000000000
        0.5000000000       0.1551724138       0.6551724138       1.0000000000
        0.5000000000       0.1465517241       0.6465517241       1.0000000000
        0.5000000000       0.1379310345       0.6379310345       1.0000000000
        0.5000000000       0.1293103448       0.6293103448       1.0000000000
        0.5000000000       0.1206896552       0.6206896552       1.0000000000
        0.5000000000       0.1120689655       0.6120689655       1.0000000000
        0.5000000000       0.1034482759       0.6034482759       1.0000000000
        0.5000000000       0.0948275862       0.5948275862       1.0000000000
        0.5000000000       0.0862068966       0.5862068966       1.0000000000
        0.5000000000       0.0775862069       0.5775862069       1.0000000000
        0.5000000000       0.0689655172       0.5689655172       1.0000000000
        0.5000000000       0.0603448276       0.5603448276       1.0000000000
        0.5000000000       0.0517241379       0.5517241379       1.0000000000
        0.5000000000       0.0431034483       0.5431034483       1.0000000000
        0.5000000000       0.0344827586       0.5344827586       1.0000000000
        0.5000000000       0.0258620690       0.5258620690       1.0000000000
        0.5000000000       0.0172413793       0.5172413793       1.0000000000
        0.5000000000       0.0086206897       0.5086206897       1.0000000000
        0.5000000000       0.0000000000       0.5000000000       1.0000000000 !X
