&CONTROL
  calculation = 'scf'
  outdir = '.'
  prefix = 'LiF'
  pseudo_dir = '/scratch/lllang/LiF/pseudos'
  verbosity = 'low'
/
&SYSTEM
  degauss =   5.0000000000d-03
  ecutrho =   600
  ecutwfc =   100
  ibrav = 0
  nat = 2
  ntyp = 2
  nspin=2,
  nosym = .TRUE.
  starting_magnetization(1)= 0.7,
  degauss=0.005d0,
  occupations='smearing', smearing='marzari-vanderbilt'
/
&ELECTRONS
  conv_thr =   1.0000000000d-08
  mixing_beta =   7.0000000000d-01
/

CELL_PARAMETERS {angstrom}
      2.5005783699       0.0000000000       1.4437095950
      0.8335261233       2.3575678963       1.4437095950
      0.0000000000       0.0000000000       2.8874191900
ATOMIC_SPECIES
F      18.9984032 F.pbe-n-kjpaw_psl.1.0.0.UPF
Li     6.941 Li.pbe-s-kjpaw_psl.1.0.0.UPF
ATOMIC_POSITIONS {angstrom}
Li           0.0000000000       0.0000000000       0.0000000000 
F            1.6670522466       1.1787839482       2.8874191900 

K_POINTS {automatic}
 11 11 11 0 0 0


