#************************************************************************************
#*                  Generated by cif2cell 1.2.10 2020-08-26 13:14                   *
#*  T. Bjorkman, Comp. Phys. Commun. 182, 1183-1186 (2011). Please cite generously. *
#*                                                                                  *
#*                                   LiNbO3   ()                                    *
#*             Failed to get author information, No journal information             *
#************************************************************************************
&CONTROL
  calculation = 'scf'
  outdir = '.'
  prefix = 'LiNbO3'
  pseudo_dir = '/scratch/lllang/LiNbO3/pseudos'
  verbosity = 'low'
  wf_collect = .true.
/
&SYSTEM
  degauss =   0.005
  ecutrho =   600
  ecutwfc =   100
  ibrav = 0
  A =    5.59240
  nat = 10
  ntyp = 3
  nbnd = 48
  nosym = .TRUE., noinv = .TRUE.
  occupations='smearing', smearing='marzari-vanderbilt'
/
&ELECTRONS
  conv_thr =   1.0000000000d-08
  mixing_beta =   7.0000000000d-01
/
CELL_PARAMETERS {alat}
  1.000000000000000   0.000000000000000   0.000000000000000 
  0.563873895725760   0.825860902161529   0.000000000000000 
  0.563873895725760   0.297774267798811   0.770309493097376 
ATOMIC_SPECIES
  Nb   92.90600  Nb.pbe-spn-kjpaw_psl.1.0.0.UPF
   O   15.99900  O.pbe-n-kjpaw_psl.1.0.0.UPF
  Li    6.96750  Li.pbe-s-kjpaw_psl.1.0.0.UPF
ATOMIC_POSITIONS {crystal}
Nb   0.999231000000000   0.999231000000000   0.999231000000000 
Nb   0.499231000000000   0.499231000000000   0.499231000000000 
 O   0.639684000000000   0.890368000000000   0.279949000000000 
 O   0.890368000000000   0.279949000000000   0.639684000000000 
 O   0.279949000000000   0.639684000000000   0.890368000000000 
 O   0.390368000000000   0.139684000000000   0.779949000000000 
 O   0.139684000000000   0.779949000000000   0.390368000000000 
 O   0.779949000000000   0.390368000000000   0.139684000000000 
Li   0.717168000000000   0.717168000000000   0.717168000000000 
Li   0.217168000000000   0.217168000000000   0.217168000000000 

K_POINTS crystal
520
   0.0000000   0.0000000   0.0000000   1.0
   0.0000000   0.0000000   0.1428571   1.0
   0.0000000   0.0000000   0.2857143   1.0
   0.0000000   0.0000000   0.4285714   1.0
   0.0000000   0.0000000  -0.4285714   1.0
   0.0000000   0.0000000  -0.2857143   1.0
   0.0000000   0.0000000  -0.1428571   1.0
   0.0000000   0.1428571   0.0000000   1.0
   0.0000000   0.1428571   0.1428571   1.0
   0.0000000   0.1428571   0.2857143   1.0
   0.0000000   0.1428571   0.4285714   1.0
   0.0000000   0.1428571  -0.4285714   1.0
   0.0000000   0.1428571  -0.2857143   1.0
   0.0000000   0.1428571  -0.1428571   1.0
   0.0000000   0.2857143   0.0000000   1.0
   0.0000000   0.2857143   0.1428571   1.0
   0.0000000   0.2857143   0.2857143   1.0
   0.0000000   0.2857143   0.4285714   1.0
   0.0000000   0.2857143  -0.4285714   1.0
   0.0000000   0.2857143  -0.2857143   1.0
   0.0000000   0.2857143  -0.1428571   1.0
   0.0000000   0.4285714   0.0000000   1.0
   0.0000000   0.4285714   0.1428571   1.0
   0.0000000   0.4285714   0.2857143   1.0
   0.0000000   0.4285714   0.4285714   1.0
   0.0000000   0.4285714  -0.4285714   1.0
   0.0000000   0.4285714  -0.2857143   1.0
   0.0000000   0.4285714  -0.1428571   1.0
   0.0000000  -0.4285714   0.0000000   1.0
   0.0000000  -0.4285714   0.1428571   1.0
   0.0000000  -0.4285714   0.2857143   1.0
   0.0000000  -0.4285714   0.4285714   1.0
   0.0000000  -0.4285714  -0.4285714   1.0
   0.0000000  -0.4285714  -0.2857143   1.0
   0.0000000  -0.4285714  -0.1428571   1.0
   0.0000000  -0.2857143   0.0000000   1.0
   0.0000000  -0.2857143   0.1428571   1.0
   0.0000000  -0.2857143   0.2857143   1.0
   0.0000000  -0.2857143   0.4285714   1.0
   0.0000000  -0.2857143  -0.4285714   1.0
   0.0000000  -0.2857143  -0.2857143   1.0
   0.0000000  -0.2857143  -0.1428571   1.0
   0.0000000  -0.1428571   0.0000000   1.0
   0.0000000  -0.1428571   0.1428571   1.0
   0.0000000  -0.1428571   0.2857143   1.0
   0.0000000  -0.1428571   0.4285714   1.0
   0.0000000  -0.1428571  -0.4285714   1.0
   0.0000000  -0.1428571  -0.2857143   1.0
   0.0000000  -0.1428571  -0.1428571   1.0
   0.1428571   0.0000000   0.0000000   1.0
   0.1428571   0.0000000   0.1428571   1.0
   0.1428571   0.0000000   0.2857143   1.0
   0.1428571   0.0000000   0.4285714   1.0
   0.1428571   0.0000000  -0.4285714   1.0
   0.1428571   0.0000000  -0.2857143   1.0
   0.1428571   0.0000000  -0.1428571   1.0
   0.1428571   0.1428571  -0.0000000   1.0
   0.1428571   0.1428571   0.1428571   1.0
   0.1428571   0.1428571   0.2857143   1.0
   0.1428571   0.1428571   0.4285714   1.0
   0.1428571   0.1428571  -0.4285714   1.0
   0.1428571   0.1428571  -0.2857143   1.0
   0.1428571   0.1428571  -0.1428571   1.0
   0.1428571   0.2857143   0.0000000   1.0
   0.1428571   0.2857143   0.1428571   1.0
   0.1428571   0.2857143   0.2857143   1.0
   0.1428571   0.2857143   0.4285714   1.0
   0.1428571   0.2857143  -0.4285714   1.0
   0.1428571   0.2857143  -0.2857143   1.0
   0.1428571   0.2857143  -0.1428571   1.0
   0.1428571   0.4285714  -0.0000000   1.0
   0.1428571   0.4285714   0.1428571   1.0
   0.1428571   0.4285714   0.2857143   1.0
   0.1428571   0.4285714   0.4285714   1.0
   0.1428571   0.4285714  -0.4285714   1.0
   0.1428571   0.4285714  -0.2857143   1.0
   0.1428571   0.4285714  -0.1428571   1.0
   0.1428571  -0.4285714   0.0000000   1.0
   0.1428571  -0.4285714   0.1428571   1.0
   0.1428571  -0.4285714   0.2857143   1.0
   0.1428571  -0.4285714   0.4285714   1.0
   0.1428571  -0.4285714  -0.4285714   1.0
   0.1428571  -0.4285714  -0.2857143   1.0
   0.1428571  -0.4285714  -0.1428571   1.0
   0.1428571  -0.2857143   0.0000000   1.0
   0.1428571  -0.2857143   0.1428571   1.0
   0.1428571  -0.2857143   0.2857143   1.0
   0.1428571  -0.2857143   0.4285714   1.0
   0.1428571  -0.2857143  -0.4285714   1.0
   0.1428571  -0.2857143  -0.2857143   1.0
   0.1428571  -0.2857143  -0.1428571   1.0
   0.1428571  -0.1428571   0.0000000   1.0
   0.1428571  -0.1428571   0.1428571   1.0
   0.1428571  -0.1428571   0.2857143   1.0
   0.1428571  -0.1428571   0.4285714   1.0
   0.1428571  -0.1428571  -0.4285714   1.0
   0.1428571  -0.1428571  -0.2857143   1.0
   0.1428571  -0.1428571  -0.1428571   1.0
   0.2857143   0.0000000   0.0000000   1.0
   0.2857143   0.0000000   0.1428571   1.0
   0.2857143   0.0000000   0.2857143   1.0
   0.2857143   0.0000000   0.4285714   1.0
   0.2857143   0.0000000  -0.4285714   1.0
   0.2857143   0.0000000  -0.2857143   1.0
   0.2857143   0.0000000  -0.1428571   1.0
   0.2857143   0.1428571   0.0000000   1.0
   0.2857143   0.1428571   0.1428571   1.0
   0.2857143   0.1428571   0.2857143   1.0
   0.2857143   0.1428571   0.4285714   1.0
   0.2857143   0.1428571  -0.4285714   1.0
   0.2857143   0.1428571  -0.2857143   1.0
   0.2857143   0.1428571  -0.1428571   1.0
   0.2857143   0.2857143  -0.0000000   1.0
   0.2857143   0.2857143   0.1428571   1.0
   0.2857143   0.2857143   0.2857143   1.0
   0.2857143   0.2857143   0.4285714   1.0
   0.2857143   0.2857143  -0.4285714   1.0
   0.2857143   0.2857143  -0.2857143   1.0
   0.2857143   0.2857143  -0.1428571   1.0
   0.2857143   0.4285714   0.0000000   1.0
   0.2857143   0.4285714   0.1428571   1.0
   0.2857143   0.4285714   0.2857143   1.0
   0.2857143   0.4285714   0.4285714   1.0
   0.2857143   0.4285714  -0.4285714   1.0
   0.2857143   0.4285714  -0.2857143   1.0
   0.2857143   0.4285714  -0.1428571   1.0
   0.2857143  -0.4285714   0.0000000   1.0
   0.2857143  -0.4285714   0.1428571   1.0
   0.2857143  -0.4285714   0.2857143   1.0
   0.2857143  -0.4285714   0.4285714   1.0
   0.2857143  -0.4285714  -0.4285714   1.0
   0.2857143  -0.4285714  -0.2857143   1.0
   0.2857143  -0.4285714  -0.1428571   1.0
   0.2857143  -0.2857143  -0.0000000   1.0
   0.2857143  -0.2857143   0.1428571   1.0
   0.2857143  -0.2857143   0.2857143   1.0
   0.2857143  -0.2857143   0.4285714   1.0
   0.2857143  -0.2857143  -0.4285714   1.0
   0.2857143  -0.2857143  -0.2857143   1.0
   0.2857143  -0.2857143  -0.1428571   1.0
   0.2857143  -0.1428571   0.0000000   1.0
   0.2857143  -0.1428571   0.1428571   1.0
   0.2857143  -0.1428571   0.2857143   1.0
   0.2857143  -0.1428571   0.4285714   1.0
   0.2857143  -0.1428571  -0.4285714   1.0
   0.2857143  -0.1428571  -0.2857143   1.0
   0.2857143  -0.1428571  -0.1428571   1.0
   0.4285714   0.0000000  -0.0000000   1.0
   0.4285714   0.0000000   0.1428571   1.0
   0.4285714   0.0000000   0.2857143   1.0
   0.4285714   0.0000000   0.4285714   1.0
   0.4285714   0.0000000  -0.4285714   1.0
   0.4285714   0.0000000  -0.2857143   1.0
   0.4285714   0.0000000  -0.1428571   1.0
   0.4285714   0.1428571   0.0000000   1.0
   0.4285714   0.1428571   0.1428571   1.0
   0.4285714   0.1428571   0.2857143   1.0
   0.4285714   0.1428571   0.4285714   1.0
   0.4285714   0.1428571  -0.4285714   1.0
   0.4285714   0.1428571  -0.2857143   1.0
   0.4285714   0.1428571  -0.1428571   1.0
   0.4285714   0.2857143  -0.0000000   1.0
   0.4285714   0.2857143   0.1428571   1.0
   0.4285714   0.2857143   0.2857143   1.0
   0.4285714   0.2857143   0.4285714   1.0
   0.4285714   0.2857143  -0.4285714   1.0
   0.4285714   0.2857143  -0.2857143   1.0
   0.4285714   0.2857143  -0.1428571   1.0
   0.4285714   0.4285714   0.0000000   1.0
   0.4285714   0.4285714   0.1428571   1.0
   0.4285714   0.4285714   0.2857143   1.0
   0.4285714   0.4285714   0.4285714   1.0
   0.4285714   0.4285714  -0.4285714   1.0
   0.4285714   0.4285714  -0.2857143   1.0
   0.4285714   0.4285714  -0.1428571   1.0
   0.4285714  -0.4285714   0.0000000   1.0
   0.4285714  -0.4285714   0.1428571   1.0
   0.4285714  -0.4285714   0.2857143   1.0
   0.4285714  -0.4285714   0.4285714   1.0
   0.4285714  -0.4285714  -0.4285714   1.0
   0.4285714  -0.4285714  -0.2857143   1.0
   0.4285714  -0.4285714  -0.1428571   1.0
   0.4285714  -0.2857143  -0.0000000   1.0
   0.4285714  -0.2857143   0.1428571   1.0
   0.4285714  -0.2857143   0.2857143   1.0
   0.4285714  -0.2857143   0.4285714   1.0
   0.4285714  -0.2857143  -0.4285714   1.0
   0.4285714  -0.2857143  -0.2857143   1.0
   0.4285714  -0.2857143  -0.1428571   1.0
   0.4285714  -0.1428571  -0.0000000   1.0
   0.4285714  -0.1428571   0.1428571   1.0
   0.4285714  -0.1428571   0.2857143   1.0
   0.4285714  -0.1428571   0.4285714   1.0
   0.4285714  -0.1428571  -0.4285714   1.0
   0.4285714  -0.1428571  -0.2857143   1.0
   0.4285714  -0.1428571  -0.1428571   1.0
  -0.4285714  -0.0000000   0.0000000   1.0
  -0.4285714  -0.0000000   0.1428571   1.0
  -0.4285714  -0.0000000   0.2857143   1.0
  -0.4285714  -0.0000000   0.4285714   1.0
  -0.4285714  -0.0000000  -0.4285714   1.0
  -0.4285714  -0.0000000  -0.2857143   1.0
  -0.4285714  -0.0000000  -0.1428571   1.0
  -0.4285714   0.1428571   0.0000000   1.0
  -0.4285714   0.1428571   0.1428571   1.0
  -0.4285714   0.1428571   0.2857143   1.0
  -0.4285714   0.1428571   0.4285714   1.0
  -0.4285714   0.1428571  -0.4285714   1.0
  -0.4285714   0.1428571  -0.2857143   1.0
  -0.4285714   0.1428571  -0.1428571   1.0
  -0.4285714   0.2857143   0.0000000   1.0
  -0.4285714   0.2857143   0.1428571   1.0
  -0.4285714   0.2857143   0.2857143   1.0
  -0.4285714   0.2857143   0.4285714   1.0
  -0.4285714   0.2857143  -0.4285714   1.0
  -0.4285714   0.2857143  -0.2857143   1.0
  -0.4285714   0.2857143  -0.1428571   1.0
  -0.4285714   0.4285714  -0.0000000   1.0
  -0.4285714   0.4285714   0.1428571   1.0
  -0.4285714   0.4285714   0.2857143   1.0
  -0.4285714   0.4285714   0.4285714   1.0
  -0.4285714   0.4285714  -0.4285714   1.0
  -0.4285714   0.4285714  -0.2857143   1.0
  -0.4285714   0.4285714  -0.1428571   1.0
  -0.4285714  -0.4285714   0.0000000   1.0
  -0.4285714  -0.4285714   0.1428571   1.0
  -0.4285714  -0.4285714   0.2857143   1.0
  -0.4285714  -0.4285714   0.4285714   1.0
  -0.4285714  -0.4285714  -0.4285714   1.0
  -0.4285714  -0.4285714  -0.2857143   1.0
  -0.4285714  -0.4285714  -0.1428571   1.0
  -0.4285714  -0.2857143   0.0000000   1.0
  -0.4285714  -0.2857143   0.1428571   1.0
  -0.4285714  -0.2857143   0.2857143   1.0
  -0.4285714  -0.2857143   0.4285714   1.0
  -0.4285714  -0.2857143  -0.4285714   1.0
  -0.4285714  -0.2857143  -0.2857143   1.0
  -0.4285714  -0.2857143  -0.1428571   1.0
  -0.4285714  -0.1428571   0.0000000   1.0
  -0.4285714  -0.1428571   0.1428571   1.0
  -0.4285714  -0.1428571   0.2857143   1.0
  -0.4285714  -0.1428571   0.4285714   1.0
  -0.4285714  -0.1428571  -0.4285714   1.0
  -0.4285714  -0.1428571  -0.2857143   1.0
  -0.4285714  -0.1428571  -0.1428571   1.0
  -0.2857143   0.0000000   0.0000000   1.0
  -0.2857143   0.0000000   0.1428571   1.0
  -0.2857143   0.0000000   0.2857143   1.0
  -0.2857143   0.0000000   0.4285714   1.0
  -0.2857143   0.0000000  -0.4285714   1.0
  -0.2857143   0.0000000  -0.2857143   1.0
  -0.2857143   0.0000000  -0.1428571   1.0
  -0.2857143   0.1428571   0.0000000   1.0
  -0.2857143   0.1428571   0.1428571   1.0
  -0.2857143   0.1428571   0.2857143   1.0
  -0.2857143   0.1428571   0.4285714   1.0
  -0.2857143   0.1428571  -0.4285714   1.0
  -0.2857143   0.1428571  -0.2857143   1.0
  -0.2857143   0.1428571  -0.1428571   1.0
  -0.2857143   0.2857143   0.0000000   1.0
  -0.2857143   0.2857143   0.1428571   1.0
  -0.2857143   0.2857143   0.2857143   1.0
  -0.2857143   0.2857143   0.4285714   1.0
  -0.2857143   0.2857143  -0.4285714   1.0
  -0.2857143   0.2857143  -0.2857143   1.0
  -0.2857143   0.2857143  -0.1428571   1.0
  -0.2857143   0.4285714   0.0000000   1.0
  -0.2857143   0.4285714   0.1428571   1.0
  -0.2857143   0.4285714   0.2857143   1.0
  -0.2857143   0.4285714   0.4285714   1.0
  -0.2857143   0.4285714  -0.4285714   1.0
  -0.2857143   0.4285714  -0.2857143   1.0
  -0.2857143   0.4285714  -0.1428571   1.0
  -0.2857143  -0.4285714   0.0000000   1.0
  -0.2857143  -0.4285714   0.1428571   1.0
  -0.2857143  -0.4285714   0.2857143   1.0
  -0.2857143  -0.4285714   0.4285714   1.0
  -0.2857143  -0.4285714  -0.4285714   1.0
  -0.2857143  -0.4285714  -0.2857143   1.0
  -0.2857143  -0.4285714  -0.1428571   1.0
  -0.2857143  -0.2857143   0.0000000   1.0
  -0.2857143  -0.2857143   0.1428571   1.0
  -0.2857143  -0.2857143   0.2857143   1.0
  -0.2857143  -0.2857143   0.4285714   1.0
  -0.2857143  -0.2857143  -0.4285714   1.0
  -0.2857143  -0.2857143  -0.2857143   1.0
  -0.2857143  -0.2857143  -0.1428571   1.0
  -0.2857143  -0.1428571   0.0000000   1.0
  -0.2857143  -0.1428571   0.1428571   1.0
  -0.2857143  -0.1428571   0.2857143   1.0
  -0.2857143  -0.1428571   0.4285714   1.0
  -0.2857143  -0.1428571  -0.4285714   1.0
  -0.2857143  -0.1428571  -0.2857143   1.0
  -0.2857143  -0.1428571  -0.1428571   1.0
  -0.1428571   0.0000000   0.0000000   1.0
  -0.1428571   0.0000000   0.1428571   1.0
  -0.1428571   0.0000000   0.2857143   1.0
  -0.1428571   0.0000000   0.4285714   1.0
  -0.1428571   0.0000000  -0.4285714   1.0
  -0.1428571   0.0000000  -0.2857143   1.0
  -0.1428571   0.0000000  -0.1428571   1.0
  -0.1428571   0.1428571   0.0000000   1.0
  -0.1428571   0.1428571   0.1428571   1.0
  -0.1428571   0.1428571   0.2857143   1.0
  -0.1428571   0.1428571   0.4285714   1.0
  -0.1428571   0.1428571  -0.4285714   1.0
  -0.1428571   0.1428571  -0.2857143   1.0
  -0.1428571   0.1428571  -0.1428571   1.0
  -0.1428571   0.2857143   0.0000000   1.0
  -0.1428571   0.2857143   0.1428571   1.0
  -0.1428571   0.2857143   0.2857143   1.0
  -0.1428571   0.2857143   0.4285714   1.0
  -0.1428571   0.2857143  -0.4285714   1.0
  -0.1428571   0.2857143  -0.2857143   1.0
  -0.1428571   0.2857143  -0.1428571   1.0
  -0.1428571   0.4285714  -0.0000000   1.0
  -0.1428571   0.4285714   0.1428571   1.0
  -0.1428571   0.4285714   0.2857143   1.0
  -0.1428571   0.4285714   0.4285714   1.0
  -0.1428571   0.4285714  -0.4285714   1.0
  -0.1428571   0.4285714  -0.2857143   1.0
  -0.1428571   0.4285714  -0.1428571   1.0
  -0.1428571  -0.4285714   0.0000000   1.0
  -0.1428571  -0.4285714   0.1428571   1.0
  -0.1428571  -0.4285714   0.2857143   1.0
  -0.1428571  -0.4285714   0.4285714   1.0
  -0.1428571  -0.4285714  -0.4285714   1.0
  -0.1428571  -0.4285714  -0.2857143   1.0
  -0.1428571  -0.4285714  -0.1428571   1.0
  -0.1428571  -0.2857143   0.0000000   1.0
  -0.1428571  -0.2857143   0.1428571   1.0
  -0.1428571  -0.2857143   0.2857143   1.0
  -0.1428571  -0.2857143   0.4285714   1.0
  -0.1428571  -0.2857143  -0.4285714   1.0
  -0.1428571  -0.2857143  -0.2857143   1.0
  -0.1428571  -0.2857143  -0.1428571   1.0
  -0.1428571  -0.1428571   0.0000000   1.0
  -0.1428571  -0.1428571   0.1428571   1.0
  -0.1428571  -0.1428571   0.2857143   1.0
  -0.1428571  -0.1428571   0.4285714   1.0
  -0.1428571  -0.1428571  -0.4285714   1.0
  -0.1428571  -0.1428571  -0.2857143   1.0
  -0.1428571  -0.1428571  -0.1428571   1.0
    0.0000000000     0.0000000000     0.0000000000 0.0000 !G
    0.0200000000     0.0200000000     0.0200000000 0.0000
    0.0400000000     0.0400000000     0.0400000000 0.0000
    0.0600000000     0.0600000000     0.0600000000 0.0000
    0.0800000000     0.0800000000     0.0800000000 0.0000
    0.1000000000     0.1000000000     0.1000000000 0.0000
    0.1200000000     0.1200000000     0.1200000000 0.0000
    0.1400000000     0.1400000000     0.1400000000 0.0000
    0.1600000000     0.1600000000     0.1600000000 0.0000
    0.1800000000     0.1800000000     0.1800000000 0.0000
    0.2000000000     0.2000000000     0.2000000000 0.0000
    0.2200000000     0.2200000000     0.2200000000 0.0000
    0.2400000000     0.2400000000     0.2400000000 0.0000
    0.2600000000     0.2600000000     0.2600000000 0.0000
    0.2800000000     0.2800000000     0.2800000000 0.0000
    0.3000000000     0.3000000000     0.3000000000 0.0000
    0.3200000000     0.3200000000     0.3200000000 0.0000
    0.3400000000     0.3400000000     0.3400000000 0.0000
    0.3600000000     0.3600000000     0.3600000000 0.0000
    0.3800000000     0.3800000000     0.3800000000 0.0000
    0.4000000000     0.4000000000     0.4000000000 0.0000
    0.4200000000     0.4200000000     0.4200000000 0.0000
    0.4400000000     0.4400000000     0.4400000000 0.0000
    0.4600000000     0.4600000000     0.4600000000 0.0000
    0.4800000000     0.4800000000     0.4800000000 0.0000
    0.5000000000     0.5000000000     0.5000000000 0.0000 !T
    0.5110420726     0.4889579274     0.5000000000 0.0000
    0.5220841453     0.4779158547     0.5000000000 0.0000
    0.5331262179     0.4668737821     0.5000000000 0.0000
    0.5441682905     0.4558317095     0.5000000000 0.0000
    0.5552103632     0.4447896368     0.5000000000 0.0000
    0.5662524358     0.4337475642     0.5000000000 0.0000
    0.5772945084     0.4227054916     0.5000000000 0.0000
    0.5883365811     0.4116634189     0.5000000000 0.0000
    0.5993786537     0.4006213463     0.5000000000 0.0000
    0.6104207263     0.3895792737     0.5000000000 0.0000
    0.6214627989     0.3785372011     0.5000000000 0.0000
    0.6325048716     0.3674951284     0.5000000000 0.0000
    0.6435469442     0.3564530558     0.5000000000 0.0000
    0.6545890168     0.3454109832     0.5000000000 0.0000
    0.6656310895     0.3343689105     0.5000000000 0.0000
    0.6766731621     0.3233268379     0.5000000000 0.0000
    0.6877152347     0.3122847653     0.5000000000 0.0000
    0.6987573074     0.3012426926     0.5000000000 0.0000
    0.7097993800     0.2902006200     0.5000000000 0.0000
    0.7208414526     0.2791585474     0.5000000000 0.0000
    0.7318835253     0.2681164747     0.5000000000 0.0000
    0.7429255979     0.2570744021     0.5000000000 0.0000
    0.7539676705     0.2460323295     0.5000000000 0.0000
    0.7650097432     0.2349902568     0.5000000000 0.0000 !H2
    0.5000000000    -0.2349902568     0.2349902568 0.0000 !H0
    0.5000000000    -0.2238002446     0.2238002446 0.0000
    0.5000000000    -0.2126102324     0.2126102324 0.0000
    0.5000000000    -0.2014202201     0.2014202201 0.0000
    0.5000000000    -0.1902302079     0.1902302079 0.0000
    0.5000000000    -0.1790401957     0.1790401957 0.0000
    0.5000000000    -0.1678501835     0.1678501835 0.0000
    0.5000000000    -0.1566601712     0.1566601712 0.0000
    0.5000000000    -0.1454701590     0.1454701590 0.0000
    0.5000000000    -0.1342801468     0.1342801468 0.0000
    0.5000000000    -0.1230901345     0.1230901345 0.0000
    0.5000000000    -0.1119001223     0.1119001223 0.0000
    0.5000000000    -0.1007101101     0.1007101101 0.0000
    0.5000000000    -0.0895200978     0.0895200978 0.0000
    0.5000000000    -0.0783300856     0.0783300856 0.0000
    0.5000000000    -0.0671400734     0.0671400734 0.0000
    0.5000000000    -0.0559500612     0.0559500612 0.0000
    0.5000000000    -0.0447600489     0.0447600489 0.0000
    0.5000000000    -0.0335700367     0.0335700367 0.0000
    0.5000000000    -0.0223800245     0.0223800245 0.0000
    0.5000000000    -0.0111900122     0.0111900122 0.0000
    0.5000000000     0.0000000000     0.0000000000 0.0000 !L
    0.4821428571     0.0000000000     0.0000000000 0.0000
    0.4642857143     0.0000000000     0.0000000000 0.0000
    0.4464285714     0.0000000000     0.0000000000 0.0000
    0.4285714286     0.0000000000     0.0000000000 0.0000
    0.4107142857     0.0000000000     0.0000000000 0.0000
    0.3928571429     0.0000000000     0.0000000000 0.0000
    0.3750000000     0.0000000000     0.0000000000 0.0000
    0.3571428571     0.0000000000     0.0000000000 0.0000
    0.3392857143     0.0000000000     0.0000000000 0.0000
    0.3214285714     0.0000000000     0.0000000000 0.0000
    0.3035714286     0.0000000000     0.0000000000 0.0000
    0.2857142857     0.0000000000     0.0000000000 0.0000
    0.2678571429     0.0000000000     0.0000000000 0.0000
    0.2500000000     0.0000000000     0.0000000000 0.0000
    0.2321428571     0.0000000000     0.0000000000 0.0000
    0.2142857143     0.0000000000     0.0000000000 0.0000
    0.1964285714     0.0000000000     0.0000000000 0.0000
    0.1785714286     0.0000000000     0.0000000000 0.0000
    0.1607142857     0.0000000000     0.0000000000 0.0000
    0.1428571429     0.0000000000     0.0000000000 0.0000
    0.1250000000     0.0000000000     0.0000000000 0.0000
    0.1071428571     0.0000000000     0.0000000000 0.0000
    0.0892857143     0.0000000000     0.0000000000 0.0000
    0.0714285714     0.0000000000     0.0000000000 0.0000
    0.0535714286     0.0000000000     0.0000000000 0.0000
    0.0357142857     0.0000000000     0.0000000000 0.0000
    0.0178571429     0.0000000000     0.0000000000 0.0000
    0.0000000000     0.0000000000     0.0000000000 0.0000 !G
    0.0108086802    -0.0108086802     0.0000000000 0.0000
    0.0216173605    -0.0216173605     0.0000000000 0.0000
    0.0324260407    -0.0324260407     0.0000000000 0.0000
    0.0432347210    -0.0432347210     0.0000000000 0.0000
    0.0540434012    -0.0540434012     0.0000000000 0.0000
    0.0648520815    -0.0648520815     0.0000000000 0.0000
    0.0756607617    -0.0756607617     0.0000000000 0.0000
    0.0864694420    -0.0864694420     0.0000000000 0.0000
    0.0972781222    -0.0972781222     0.0000000000 0.0000
    0.1080868025    -0.1080868025     0.0000000000 0.0000
    0.1188954827    -0.1188954827     0.0000000000 0.0000
    0.1297041630    -0.1297041630     0.0000000000 0.0000
    0.1405128432    -0.1405128432     0.0000000000 0.0000
    0.1513215235    -0.1513215235     0.0000000000 0.0000
    0.1621302037    -0.1621302037     0.0000000000 0.0000
    0.1729388840    -0.1729388840     0.0000000000 0.0000
    0.1837475642    -0.1837475642     0.0000000000 0.0000
    0.1945562445    -0.1945562445     0.0000000000 0.0000
    0.2053649247    -0.2053649247     0.0000000000 0.0000
    0.2161736050    -0.2161736050     0.0000000000 0.0000
    0.2269822852    -0.2269822852     0.0000000000 0.0000
    0.2377909654    -0.2377909654     0.0000000000 0.0000
    0.2485996457    -0.2485996457     0.0000000000 0.0000
    0.2594083259    -0.2594083259     0.0000000000 0.0000
    0.2702170062    -0.2702170062     0.0000000000 0.0000
    0.2810256864    -0.2810256864     0.0000000000 0.0000
    0.2918343667    -0.2918343667     0.0000000000 0.0000
    0.3026430469    -0.3026430469     0.0000000000 0.0000
    0.3134517272    -0.3134517272     0.0000000000 0.0000
    0.3242604074    -0.3242604074     0.0000000000 0.0000
    0.3350690877    -0.3350690877     0.0000000000 0.0000
    0.3458777679    -0.3458777679     0.0000000000 0.0000
    0.3566864482    -0.3566864482     0.0000000000 0.0000
    0.3674951284    -0.3674951284     0.0000000000 0.0000 !S0
    0.6325048716     0.0000000000     0.3674951284 0.0000 !S2
    0.6204589742     0.0000000000     0.3795410258 0.0000
    0.6084130767     0.0000000000     0.3915869233 0.0000
    0.5963671793     0.0000000000     0.4036328207 0.0000
    0.5843212819     0.0000000000     0.4156787181 0.0000
    0.5722753845     0.0000000000     0.4277246155 0.0000
    0.5602294871     0.0000000000     0.4397705129 0.0000
    0.5481835897     0.0000000000     0.4518164103 0.0000
    0.5361376922     0.0000000000     0.4638623078 0.0000
    0.5240917948     0.0000000000     0.4759082052 0.0000
    0.5120458974     0.0000000000     0.4879541026 0.0000
    0.5000000000     0.0000000000     0.5000000000 0.0000 !F
    0.4838709677     0.0000000000     0.4838709677 0.0000
    0.4677419355     0.0000000000     0.4677419355 0.0000
    0.4516129032     0.0000000000     0.4516129032 0.0000
    0.4354838710     0.0000000000     0.4354838710 0.0000
    0.4193548387     0.0000000000     0.4193548387 0.0000
    0.4032258065     0.0000000000     0.4032258065 0.0000
    0.3870967742     0.0000000000     0.3870967742 0.0000
    0.3709677419     0.0000000000     0.3709677419 0.0000
    0.3548387097     0.0000000000     0.3548387097 0.0000
    0.3387096774     0.0000000000     0.3387096774 0.0000
    0.3225806452     0.0000000000     0.3225806452 0.0000
    0.3064516129     0.0000000000     0.3064516129 0.0000
    0.2903225806     0.0000000000     0.2903225806 0.0000
    0.2741935484     0.0000000000     0.2741935484 0.0000
    0.2580645161     0.0000000000     0.2580645161 0.0000
    0.2419354839     0.0000000000     0.2419354839 0.0000
    0.2258064516     0.0000000000     0.2258064516 0.0000
    0.2096774194     0.0000000000     0.2096774194 0.0000
    0.1935483871     0.0000000000     0.1935483871 0.0000
    0.1774193548     0.0000000000     0.1774193548 0.0000
    0.1612903226     0.0000000000     0.1612903226 0.0000
    0.1451612903     0.0000000000     0.1451612903 0.0000
    0.1290322581     0.0000000000     0.1290322581 0.0000
    0.1129032258     0.0000000000     0.1129032258 0.0000
    0.0967741935     0.0000000000     0.0967741935 0.0000
    0.0806451613     0.0000000000     0.0806451613 0.0000
    0.0645161290     0.0000000000     0.0645161290 0.0000
    0.0483870968     0.0000000000     0.0483870968 0.0000
    0.0322580645     0.0000000000     0.0322580645 0.0000
    0.0161290323     0.0000000000     0.0161290323 0.0000
    0.0000000000     0.0000000000     0.0000000000 0.0000 !G
   
