KPOINTS generated by PyProcar
40 ! Grid points
Line_mode
reciprocal
0.000000 0.000000 0.000000 ! GAMMA
0.500000 -0.500000 0.500000 ! H

0.500000 -0.500000 0.500000 ! H
0.000000 0.000000 0.500000 ! N

0.000000 0.000000 0.500000 ! N
0.000000 0.000000 0.000000 ! GAMMA

0.000000 0.000000 0.000000 ! GAMMA
0.250000 0.250000 0.250000 ! P

0.250000 0.250000 0.250000 ! P
0.500000 -0.500000 0.500000 ! H

0.250000 0.250000 0.250000 ! P
0.000000 0.000000 0.500000 ! N

