KPOINTS generated by PyProcar
40 ! Grid points
Line_mode
reciprocal

0.000000 0.000000 0.000000 ! GAMMA
0.500000 0.000000 0.000000 ! X

0.500000 0.000000 0.000000 ! X
0.500000 0.500000 0.000000 ! M

0.500000 0.500000 0.000000 ! M
0.000000 0.000000 0.000000 ! GAMMA

0.000000 0.000000 0.000000 ! GAMMA
0.500000 0.500000 0.500000 ! R

